%%MatrixMarket matrix coordinate real general
%
1293 3117 11751
1210 1 1
1293 1 1
1 2 1
1213 2 -6.518E3
1254 2 -6.518E3
2 3 1
1215 3 -6.518E3
1256 3 -6.518E3
3 4 1
1218 4 -6.518E3
1259 4 -6.518E3
4 5 1
1222 5 -6.518E3
1263 5 -6.518E3
5 6 1
1227 6 -6.518E3
1268 6 -6.518E3
6 7 1
1244 7 -6.518E3
1285 7 -6.518E3
7 8 1
1211 8 -6.518E3
1252 8 -6.518E3
8 9 1
1212 9 -6.518E3
1253 9 -6.518E3
9 10 1
1214 10 -6.518E3
1255 10 -6.518E3
10 11 1
1217 11 -6.518E3
1258 11 -6.518E3
11 12 1
1221 12 -6.518E3
1262 12 -6.518E3
12 13 1
1226 13 -6.518E3
1267 13 -6.518E3
13 14 1
1232 14 -6.518E3
1273 14 -6.518E3
14 15 1
1236 15 -6.518E3
1277 15 -6.518E3
15 16 1
1243 16 -6.518E3
1284 16 -6.518E3
16 17 1
17 17 1
1211 17 -6.518E3
1252 17 -6.518E3
16 18 1
18 18 1
1212 18 -6.518E3
1253 18 -6.518E3
16 19 1
19 19 1
1214 19 -6.518E3
1255 19 -6.518E3
16 20 1
20 20 1
1217 20 -6.518E3
1258 20 -6.518E3
16 21 1
21 21 1
1221 21 -6.518E3
1262 21 -6.518E3
16 22 1
22 22 1
1226 22 -6.518E3
1267 22 -6.518E3
16 23 1
23 23 1
1232 23 -6.518E3
1273 23 -6.518E3
16 24 1
24 24 1
1236 24 -6.518E3
1277 24 -6.518E3
16 25 1
25 25 1
1243 25 -6.518E3
1284 25 -6.518E3
17 26 1
18 26 -1
1213 26 -6.518E3
1254 26 -6.518E3
17 27 1
19 27 -1
1215 27 -6.518E3
1256 27 -6.518E3
17 28 1
20 28 -1
1218 28 -6.518E3
1259 28 -6.518E3
17 29 1
21 29 -1
1222 29 -6.518E3
1263 29 -6.518E3
17 30 1
22 30 -1
1227 30 -6.518E3
1268 30 -6.518E3
17 31 1
25 31 -1
1244 31 -6.518E3
1285 31 -6.518E3
18 32 1
19 32 -1
1216 32 -6.518E3
1257 32 -6.518E3
18 33 1
20 33 -1
1219 33 -6.518E3
1260 33 -6.518E3
18 34 1
21 34 -1
1223 34 -6.518E3
1264 34 -6.518E3
18 35 1
22 35 -1
1228 35 -6.518E3
1269 35 -6.518E3
18 36 1
24 36 -1
1237 36 -6.518E3
1278 36 -6.518E3
18 37 1
25 37 -1
1245 37 -6.518E3
1286 37 -6.518E3
18 38 -1
19 38 1
1216 38 -6.518E3
1257 38 -6.518E3
18 39 -1
20 39 1
1219 39 -6.518E3
1260 39 -6.518E3
18 40 -1
21 40 1
1223 40 -6.518E3
1264 40 -6.518E3
18 41 -1
22 41 1
1228 41 -6.518E3
1269 41 -6.518E3
18 42 -1
24 42 1
1237 42 -6.518E3
1278 42 -6.518E3
18 43 -1
25 43 1
1245 43 -6.518E3
1286 43 -6.518E3
19 44 1
20 44 -1
1220 44 -6.518E3
1261 44 -6.518E3
19 45 1
21 45 -1
1224 45 -6.518E3
1265 45 -6.518E3
19 46 1
22 46 -1
1229 46 -6.518E3
1270 46 -6.518E3
19 47 1
24 47 -1
1238 47 -6.518E3
1279 47 -6.518E3
19 48 1
25 48 -1
1246 48 -6.518E3
1287 48 -6.518E3
19 49 -1
20 49 1
1220 49 -6.518E3
1261 49 -6.518E3
19 50 -1
21 50 1
1224 50 -6.518E3
1265 50 -6.518E3
19 51 -1
22 51 1
1229 51 -6.518E3
1270 51 -6.518E3
19 52 -1
24 52 1
1238 52 -6.518E3
1279 52 -6.518E3
19 53 -1
25 53 1
1246 53 -6.518E3
1287 53 -6.518E3
20 54 1
21 54 -1
1225 54 -6.518E3
1266 54 -6.518E3
20 55 1
22 55 -1
1230 55 -6.518E3
1271 55 -6.518E3
20 56 1
23 56 -1
1233 56 -6.518E3
1274 56 -6.518E3
20 57 1
24 57 -1
1239 57 -6.518E3
1280 57 -6.518E3
20 58 1
25 58 -1
1247 58 -6.518E3
1288 58 -6.518E3
20 59 -1
21 59 1
1225 59 -6.518E3
1266 59 -6.518E3
20 60 -1
22 60 1
1230 60 -6.518E3
1271 60 -6.518E3
20 61 -1
23 61 1
1233 61 -6.518E3
1274 61 -6.518E3
20 62 -1
24 62 1
1239 62 -6.518E3
1280 62 -6.518E3
20 63 -1
25 63 1
1247 63 -6.518E3
1288 63 -6.518E3
21 64 1
22 64 -1
1231 64 -6.518E3
1272 64 -6.518E3
21 65 1
23 65 -1
1234 65 -6.518E3
1275 65 -6.518E3
21 66 1
24 66 -1
1240 66 -6.518E3
1281 66 -6.518E3
21 67 1
25 67 -1
1248 67 -6.518E3
1289 67 -6.518E3
21 68 -1
22 68 1
1231 68 -6.518E3
1272 68 -6.518E3
21 69 -1
23 69 1
1234 69 -6.518E3
1275 69 -6.518E3
21 70 -1
24 70 1
1240 70 -6.518E3
1281 70 -6.518E3
21 71 -1
25 71 1
1248 71 -6.518E3
1289 71 -6.518E3
22 72 1
23 72 -1
1235 72 -6.518E3
1276 72 -6.518E3
22 73 1
24 73 -1
1241 73 -6.518E3
1282 73 -6.518E3
22 74 1
25 74 -1
1249 74 -6.518E3
1290 74 -6.518E3
22 75 -1
23 75 1
1235 75 -6.518E3
1276 75 -6.518E3
22 76 -1
24 76 1
1241 76 -6.518E3
1282 76 -6.518E3
22 77 -1
25 77 1
1249 77 -6.518E3
1290 77 -6.518E3
23 78 1
24 78 -1
1242 78 -6.518E3
1283 78 -6.518E3
23 79 1
25 79 -1
1250 79 -6.518E3
1291 79 -6.518E3
23 80 -1
24 80 1
1242 80 -6.518E3
1283 80 -6.518E3
23 81 -1
25 81 1
1250 81 -6.518E3
1291 81 -6.518E3
24 82 1
25 82 -1
1251 82 -6.518E3
1292 82 -6.518E3
24 83 -1
25 83 1
1251 83 -6.518E3
1292 83 -6.518E3
26 84 1
1243 84 -4.54E2
1284 84 -4.54E2
27 85 1
1244 85 -4.54E2
1285 85 -4.54E2
28 86 1
1245 86 -4.54E2
1286 86 -4.54E2
29 87 1
1246 87 -4.54E2
1287 87 -4.54E2
30 88 1
1247 88 -4.54E2
1288 88 -4.54E2
31 89 1
1248 89 -4.54E2
1289 89 -4.54E2
32 90 1
1249 90 -4.54E2
1290 90 -4.54E2
33 91 1
1250 91 -4.54E2
1291 91 -4.54E2
34 92 1
1251 92 -4.54E2
1292 92 -4.54E2
35 93 1
1236 93 -4.54E2
1277 93 -4.54E2
36 94 1
1237 94 -4.54E2
1278 94 -4.54E2
37 95 1
1238 95 -4.54E2
1279 95 -4.54E2
38 96 1
1239 96 -4.54E2
1280 96 -4.54E2
39 97 1
1240 97 -4.54E2
1281 97 -4.54E2
40 98 1
1241 98 -4.54E2
1282 98 -4.54E2
41 99 1
1242 99 -4.54E2
1283 99 -4.54E2
42 100 1
44 100 1
1243 100 -4.54E2
1284 100 -4.54E2
42 101 1
45 101 1
1244 101 -4.54E2
1285 101 -4.54E2
42 102 1
46 102 1
1245 102 -4.54E2
1286 102 -4.54E2
42 103 1
47 103 1
1246 103 -4.54E2
1287 103 -4.54E2
42 104 1
48 104 1
1247 104 -4.54E2
1288 104 -4.54E2
42 105 1
49 105 1
1248 105 -4.54E2
1289 105 -4.54E2
42 106 1
50 106 1
1249 106 -4.54E2
1290 106 -4.54E2
42 107 1
51 107 1
1250 107 -4.54E2
1291 107 -4.54E2
42 108 1
43 108 1
1251 108 -4.54E2
1292 108 -4.54E2
43 109 1
44 109 -1
1236 109 -4.54E2
1277 109 -4.54E2
43 110 1
46 110 -1
1237 110 -4.54E2
1278 110 -4.54E2
43 111 1
47 111 -1
1238 111 -4.54E2
1279 111 -4.54E2
43 112 1
48 112 -1
1239 112 -4.54E2
1280 112 -4.54E2
43 113 1
49 113 -1
1240 113 -4.54E2
1281 113 -4.54E2
43 114 1
50 114 -1
1241 114 -4.54E2
1282 114 -4.54E2
43 115 1
51 115 -1
1242 115 -4.54E2
1283 115 -4.54E2
44 116 1
45 116 -1
1211 116 -4.54E2
1252 116 -4.54E2
44 117 1
46 117 -1
1212 117 -4.54E2
1253 117 -4.54E2
44 118 1
47 118 -1
1214 118 -4.54E2
1255 118 -4.54E2
44 119 1
48 119 -1
1217 119 -4.54E2
1258 119 -4.54E2
44 120 1
49 120 -1
1221 120 -4.54E2
1262 120 -4.54E2
44 121 1
50 121 -1
1226 121 -4.54E2
1267 121 -4.54E2
44 122 1
51 122 -1
1232 122 -4.54E2
1273 122 -4.54E2
44 123 -1
45 123 1
1211 123 -4.54E2
1252 123 -4.54E2
44 124 -1
46 124 1
1212 124 -4.54E2
1253 124 -4.54E2
44 125 -1
47 125 1
1214 125 -4.54E2
1255 125 -4.54E2
44 126 -1
48 126 1
1217 126 -4.54E2
1258 126 -4.54E2
44 127 -1
49 127 1
1221 127 -4.54E2
1262 127 -4.54E2
44 128 -1
50 128 1
1226 128 -4.54E2
1267 128 -4.54E2
44 129 -1
51 129 1
1232 129 -4.54E2
1273 129 -4.54E2
45 130 1
46 130 -1
1213 130 -4.54E2
1254 130 -4.54E2
45 131 1
47 131 -1
1215 131 -4.54E2
1256 131 -4.54E2
45 132 1
48 132 -1
1218 132 -4.54E2
1259 132 -4.54E2
45 133 1
49 133 -1
1222 133 -4.54E2
1263 133 -4.54E2
45 134 1
50 134 -1
1227 134 -4.54E2
1268 134 -4.54E2
45 135 -1
46 135 1
1213 135 -4.54E2
1254 135 -4.54E2
45 136 -1
47 136 1
1215 136 -4.54E2
1256 136 -4.54E2
45 137 -1
48 137 1
1218 137 -4.54E2
1259 137 -4.54E2
45 138 -1
49 138 1
1222 138 -4.54E2
1263 138 -4.54E2
45 139 -1
50 139 1
1227 139 -4.54E2
1268 139 -4.54E2
46 140 1
47 140 -1
1216 140 -4.54E2
1257 140 -4.54E2
46 141 1
48 141 -1
1219 141 -4.54E2
1260 141 -4.54E2
46 142 1
49 142 -1
1223 142 -4.54E2
1264 142 -4.54E2
46 143 1
50 143 -1
1228 143 -4.54E2
1269 143 -4.54E2
46 144 -1
47 144 1
1216 144 -4.54E2
1257 144 -4.54E2
46 145 -1
48 145 1
1219 145 -4.54E2
1260 145 -4.54E2
46 146 -1
49 146 1
1223 146 -4.54E2
1264 146 -4.54E2
46 147 -1
50 147 1
1228 147 -4.54E2
1269 147 -4.54E2
47 148 1
48 148 -1
1220 148 -4.54E2
1261 148 -4.54E2
47 149 1
49 149 -1
1224 149 -4.54E2
1265 149 -4.54E2
47 150 1
50 150 -1
1229 150 -4.54E2
1270 150 -4.54E2
47 151 -1
48 151 1
1220 151 -4.54E2
1261 151 -4.54E2
47 152 -1
49 152 1
1224 152 -4.54E2
1265 152 -4.54E2
47 153 -1
50 153 1
1229 153 -4.54E2
1270 153 -4.54E2
48 154 1
49 154 -1
1225 154 -4.54E2
1266 154 -4.54E2
48 155 1
50 155 -1
1230 155 -4.54E2
1271 155 -4.54E2
48 156 1
51 156 -1
1233 156 -4.54E2
1274 156 -4.54E2
48 157 -1
49 157 1
1225 157 -4.54E2
1266 157 -4.54E2
48 158 -1
50 158 1
1230 158 -4.54E2
1271 158 -4.54E2
48 159 -1
51 159 1
1233 159 -4.54E2
1274 159 -4.54E2
49 160 1
50 160 -1
1231 160 -4.54E2
1272 160 -4.54E2
49 161 1
51 161 -1
1234 161 -4.54E2
1275 161 -4.54E2
49 162 -1
50 162 1
1231 162 -4.54E2
1272 162 -4.54E2
49 163 -1
51 163 1
1234 163 -4.54E2
1275 163 -4.54E2
50 164 1
51 164 -1
1235 164 -4.54E2
1276 164 -4.54E2
50 165 -1
51 165 1
1235 165 -4.54E2
1276 165 -4.54E2
52 166 1
1225 166 -1.239E3
1266 166 -1.239E3
53 167 1
1230 167 -1.239E3
1271 167 -1.239E3
54 168 1
1233 168 -1.239E3
1274 168 -1.239E3
55 169 1
1239 169 -1.239E3
1280 169 -1.239E3
56 170 1
1247 170 -1.239E3
1288 170 -1.239E3
57 171 1
1211 171 -1.239E3
1252 171 -1.239E3
58 172 1
1212 172 -1.239E3
1253 172 -1.239E3
59 173 1
1214 173 -1.239E3
1255 173 -1.239E3
60 174 1
1217 174 -1.239E3
1258 174 -1.239E3
61 175 1
1218 175 -1.239E3
1259 175 -1.239E3
62 176 1
1219 176 -1.239E3
1260 176 -1.239E3
63 177 1
1220 177 -1.239E3
1261 177 -1.239E3
64 178 1
1221 178 -1.239E3
1262 178 -1.239E3
65 179 1
1226 179 -1.239E3
1267 179 -1.239E3
66 180 1
1232 180 -1.239E3
1273 180 -1.239E3
67 181 1
1236 181 -1.239E3
1277 181 -1.239E3
68 182 1
1243 182 -1.239E3
1284 182 -1.239E3
69 183 1
71 183 1
1211 183 -1.239E3
1252 183 -1.239E3
69 184 1
72 184 1
1212 184 -1.239E3
1253 184 -1.239E3
69 185 1
73 185 1
1214 185 -1.239E3
1255 185 -1.239E3
69 186 1
70 186 1
1217 186 -1.239E3
1258 186 -1.239E3
69 187 1
74 187 1
1221 187 -1.239E3
1262 187 -1.239E3
69 188 1
75 188 1
1226 188 -1.239E3
1267 188 -1.239E3
69 189 1
76 189 1
1232 189 -1.239E3
1273 189 -1.239E3
69 190 1
77 190 1
1236 190 -1.239E3
1277 190 -1.239E3
69 191 1
78 191 1
1243 191 -1.239E3
1284 191 -1.239E3
70 192 1
71 192 -1
1218 192 -1.239E3
1259 192 -1.239E3
70 193 1
72 193 -1
1219 193 -1.239E3
1260 193 -1.239E3
70 194 1
73 194 -1
1220 194 -1.239E3
1261 194 -1.239E3
70 195 1
74 195 -1
1225 195 -1.239E3
1266 195 -1.239E3
70 196 1
75 196 -1
1230 196 -1.239E3
1271 196 -1.239E3
70 197 1
76 197 -1
1233 197 -1.239E3
1274 197 -1.239E3
70 198 1
77 198 -1
1239 198 -1.239E3
1280 198 -1.239E3
70 199 1
78 199 -1
1247 199 -1.239E3
1288 199 -1.239E3
71 200 1
72 200 -1
1213 200 -1.239E3
1254 200 -1.239E3
71 201 1
73 201 -1
1215 201 -1.239E3
1256 201 -1.239E3
71 202 1
74 202 -1
1222 202 -1.239E3
1263 202 -1.239E3
71 203 1
75 203 -1
1227 203 -1.239E3
1268 203 -1.239E3
71 204 1
78 204 -1
1244 204 -1.239E3
1285 204 -1.239E3
71 205 -1
72 205 1
1213 205 -1.239E3
1254 205 -1.239E3
71 206 -1
73 206 1
1215 206 -1.239E3
1256 206 -1.239E3
71 207 -1
74 207 1
1222 207 -1.239E3
1263 207 -1.239E3
71 208 -1
75 208 1
1227 208 -1.239E3
1268 208 -1.239E3
71 209 -1
78 209 1
1244 209 -1.239E3
1285 209 -1.239E3
72 210 1
73 210 -1
1216 210 -1.239E3
1257 210 -1.239E3
72 211 1
74 211 -1
1223 211 -1.239E3
1264 211 -1.239E3
72 212 1
75 212 -1
1228 212 -1.239E3
1269 212 -1.239E3
72 213 1
77 213 -1
1237 213 -1.239E3
1278 213 -1.239E3
72 214 1
78 214 -1
1245 214 -1.239E3
1286 214 -1.239E3
72 215 -1
73 215 1
1216 215 -1.239E3
1257 215 -1.239E3
72 216 -1
74 216 1
1223 216 -1.239E3
1264 216 -1.239E3
72 217 -1
75 217 1
1228 217 -1.239E3
1269 217 -1.239E3
72 218 -1
77 218 1
1237 218 -1.239E3
1278 218 -1.239E3
72 219 -1
78 219 1
1245 219 -1.239E3
1286 219 -1.239E3
73 220 1
74 220 -1
1224 220 -1.239E3
1265 220 -1.239E3
73 221 1
75 221 -1
1229 221 -1.239E3
1270 221 -1.239E3
73 222 1
77 222 -1
1238 222 -1.239E3
1279 222 -1.239E3
73 223 1
78 223 -1
1246 223 -1.239E3
1287 223 -1.239E3
73 224 -1
74 224 1
1224 224 -1.239E3
1265 224 -1.239E3
73 225 -1
75 225 1
1229 225 -1.239E3
1270 225 -1.239E3
73 226 -1
77 226 1
1238 226 -1.239E3
1279 226 -1.239E3
73 227 -1
78 227 1
1246 227 -1.239E3
1287 227 -1.239E3
74 228 1
75 228 -1
1231 228 -1.239E3
1272 228 -1.239E3
74 229 1
76 229 -1
1234 229 -1.239E3
1275 229 -1.239E3
74 230 1
77 230 -1
1240 230 -1.239E3
1281 230 -1.239E3
74 231 1
78 231 -1
1248 231 -1.239E3
1289 231 -1.239E3
74 232 -1
75 232 1
1231 232 -1.239E3
1272 232 -1.239E3
74 233 -1
76 233 1
1234 233 -1.239E3
1275 233 -1.239E3
74 234 -1
77 234 1
1240 234 -1.239E3
1281 234 -1.239E3
74 235 -1
78 235 1
1248 235 -1.239E3
1289 235 -1.239E3
75 236 1
76 236 -1
1235 236 -1.239E3
1276 236 -1.239E3
75 237 1
77 237 -1
1241 237 -1.239E3
1282 237 -1.239E3
75 238 1
78 238 -1
1249 238 -1.239E3
1290 238 -1.239E3
75 239 -1
76 239 1
1235 239 -1.239E3
1276 239 -1.239E3
75 240 -1
77 240 1
1241 240 -1.239E3
1282 240 -1.239E3
75 241 -1
78 241 1
1249 241 -1.239E3
1290 241 -1.239E3
76 242 1
77 242 -1
1242 242 -1.239E3
1283 242 -1.239E3
76 243 1
78 243 -1
1250 243 -1.239E3
1291 243 -1.239E3
76 244 -1
77 244 1
1242 244 -1.239E3
1283 244 -1.239E3
76 245 -1
78 245 1
1250 245 -1.239E3
1291 245 -1.239E3
77 246 1
78 246 -1
1251 246 -1.239E3
1292 246 -1.239E3
77 247 -1
78 247 1
1251 247 -1.239E3
1292 247 -1.239E3
79 248 1
1242 248 -7.4E2
1283 248 -7.4E2
80 249 1
1243 249 -7.4E2
1284 249 -7.4E2
81 250 1
1244 250 -7.4E2
1285 250 -7.4E2
82 251 1
1245 251 -7.4E2
1286 251 -7.4E2
83 252 1
1246 252 -7.4E2
1287 252 -7.4E2
84 253 1
1247 253 -7.4E2
1288 253 -7.4E2
85 254 1
1248 254 -7.4E2
1289 254 -7.4E2
86 255 1
1249 255 -7.4E2
1290 255 -7.4E2
87 256 1
1250 256 -7.4E2
1291 256 -7.4E2
88 257 1
1251 257 -7.4E2
1292 257 -7.4E2
89 258 1
1232 258 -7.4E2
1273 258 -7.4E2
90 259 1
1233 259 -7.4E2
1274 259 -7.4E2
91 260 1
1234 260 -7.4E2
1275 260 -7.4E2
92 261 1
1235 261 -7.4E2
1276 261 -7.4E2
93 262 1
95 262 1
1243 262 -7.4E2
1284 262 -7.4E2
93 263 1
96 263 1
1244 263 -7.4E2
1285 263 -7.4E2
93 264 1
97 264 1
1245 264 -7.4E2
1286 264 -7.4E2
93 265 1
98 265 1
1246 265 -7.4E2
1287 265 -7.4E2
93 266 1
99 266 1
1247 266 -7.4E2
1288 266 -7.4E2
93 267 1
100 267 1
1248 267 -7.4E2
1289 267 -7.4E2
93 268 1
101 268 1
1249 268 -7.4E2
1290 268 -7.4E2
93 269 1
94 269 1
1250 269 -7.4E2
1291 269 -7.4E2
93 270 1
102 270 1
1251 270 -7.4E2
1292 270 -7.4E2
94 271 1
95 271 -1
1232 271 -7.4E2
1273 271 -7.4E2
94 272 1
99 272 -1
1233 272 -7.4E2
1274 272 -7.4E2
94 273 1
100 273 -1
1234 273 -7.4E2
1275 273 -7.4E2
94 274 1
101 274 -1
1235 274 -7.4E2
1276 274 -7.4E2
94 275 1
102 275 -1
1242 275 -7.4E2
1283 275 -7.4E2
95 276 1
96 276 -1
1211 276 -7.4E2
1252 276 -7.4E2
95 277 1
97 277 -1
1212 277 -7.4E2
1253 277 -7.4E2
95 278 1
98 278 -1
1214 278 -7.4E2
1255 278 -7.4E2
95 279 1
99 279 -1
1217 279 -7.4E2
1258 279 -7.4E2
95 280 1
100 280 -1
1221 280 -7.4E2
1262 280 -7.4E2
95 281 1
101 281 -1
1226 281 -7.4E2
1267 281 -7.4E2
95 282 1
102 282 -1
1236 282 -7.4E2
1277 282 -7.4E2
95 283 -1
96 283 1
1211 283 -7.4E2
1252 283 -7.4E2
95 284 -1
97 284 1
1212 284 -7.4E2
1253 284 -7.4E2
95 285 -1
98 285 1
1214 285 -7.4E2
1255 285 -7.4E2
95 286 -1
99 286 1
1217 286 -7.4E2
1258 286 -7.4E2
95 287 -1
100 287 1
1221 287 -7.4E2
1262 287 -7.4E2
95 288 -1
101 288 1
1226 288 -7.4E2
1267 288 -7.4E2
95 289 -1
102 289 1
1236 289 -7.4E2
1277 289 -7.4E2
96 290 1
97 290 -1
1213 290 -7.4E2
1254 290 -7.4E2
96 291 1
98 291 -1
1215 291 -7.4E2
1256 291 -7.4E2
96 292 1
99 292 -1
1218 292 -7.4E2
1259 292 -7.4E2
96 293 1
100 293 -1
1222 293 -7.4E2
1263 293 -7.4E2
96 294 1
101 294 -1
1227 294 -7.4E2
1268 294 -7.4E2
96 295 -1
97 295 1
1213 295 -7.4E2
1254 295 -7.4E2
96 296 -1
98 296 1
1215 296 -7.4E2
1256 296 -7.4E2
96 297 -1
99 297 1
1218 297 -7.4E2
1259 297 -7.4E2
96 298 -1
100 298 1
1222 298 -7.4E2
1263 298 -7.4E2
96 299 -1
101 299 1
1227 299 -7.4E2
1268 299 -7.4E2
97 300 1
98 300 -1
1216 300 -7.4E2
1257 300 -7.4E2
97 301 1
99 301 -1
1219 301 -7.4E2
1260 301 -7.4E2
97 302 1
100 302 -1
1223 302 -7.4E2
1264 302 -7.4E2
97 303 1
101 303 -1
1228 303 -7.4E2
1269 303 -7.4E2
97 304 1
102 304 -1
1237 304 -7.4E2
1278 304 -7.4E2
97 305 -1
98 305 1
1216 305 -7.4E2
1257 305 -7.4E2
97 306 -1
99 306 1
1219 306 -7.4E2
1260 306 -7.4E2
97 307 -1
100 307 1
1223 307 -7.4E2
1264 307 -7.4E2
97 308 -1
101 308 1
1228 308 -7.4E2
1269 308 -7.4E2
97 309 -1
102 309 1
1237 309 -7.4E2
1278 309 -7.4E2
98 310 1
99 310 -1
1220 310 -7.4E2
1261 310 -7.4E2
98 311 1
100 311 -1
1224 311 -7.4E2
1265 311 -7.4E2
98 312 1
101 312 -1
1229 312 -7.4E2
1270 312 -7.4E2
98 313 1
102 313 -1
1238 313 -7.4E2
1279 313 -7.4E2
98 314 -1
99 314 1
1220 314 -7.4E2
1261 314 -7.4E2
98 315 -1
100 315 1
1224 315 -7.4E2
1265 315 -7.4E2
98 316 -1
101 316 1
1229 316 -7.4E2
1270 316 -7.4E2
98 317 -1
102 317 1
1238 317 -7.4E2
1279 317 -7.4E2
99 318 1
100 318 -1
1225 318 -7.4E2
1266 318 -7.4E2
99 319 1
101 319 -1
1230 319 -7.4E2
1271 319 -7.4E2
99 320 1
102 320 -1
1239 320 -7.4E2
1280 320 -7.4E2
99 321 -1
100 321 1
1225 321 -7.4E2
1266 321 -7.4E2
99 322 -1
101 322 1
1230 322 -7.4E2
1271 322 -7.4E2
99 323 -1
102 323 1
1239 323 -7.4E2
1280 323 -7.4E2
100 324 1
101 324 -1
1231 324 -7.4E2
1272 324 -7.4E2
100 325 1
102 325 -1
1240 325 -7.4E2
1281 325 -7.4E2
100 326 -1
101 326 1
1231 326 -7.4E2
1272 326 -7.4E2
100 327 -1
102 327 1
1240 327 -7.4E2
1281 327 -7.4E2
101 328 1
102 328 -1
1241 328 -7.4E2
1282 328 -7.4E2
101 329 -1
102 329 1
1241 329 -7.4E2
1282 329 -7.4E2
103 330 1
1231 330 -2.84E2
1272 330 -2.84E2
104 331 1
1234 331 -2.84E2
1275 331 -2.84E2
105 332 1
1240 332 -2.84E2
1281 332 -2.84E2
106 333 1
1248 333 -2.84E2
1289 333 -2.84E2
107 334 1
1211 334 -2.84E2
1252 334 -2.84E2
108 335 1
1212 335 -2.84E2
1253 335 -2.84E2
109 336 1
1214 336 -2.84E2
1255 336 -2.84E2
110 337 1
1217 337 -2.84E2
1258 337 -2.84E2
111 338 1
1221 338 -2.84E2
1262 338 -2.84E2
112 339 1
1222 339 -2.84E2
1263 339 -2.84E2
113 340 1
1223 340 -2.84E2
1264 340 -2.84E2
114 341 1
1224 341 -2.84E2
1265 341 -2.84E2
115 342 1
1225 342 -2.84E2
1266 342 -2.84E2
116 343 1
1226 343 -2.84E2
1267 343 -2.84E2
117 344 1
1232 344 -2.84E2
1273 344 -2.84E2
118 345 1
1236 345 -2.84E2
1277 345 -2.84E2
119 346 1
1243 346 -2.84E2
1284 346 -2.84E2
120 347 1
122 347 1
1211 347 -2.84E2
1252 347 -2.84E2
120 348 1
123 348 1
1212 348 -2.84E2
1253 348 -2.84E2
120 349 1
124 349 1
1214 349 -2.84E2
1255 349 -2.84E2
120 350 1
125 350 1
1217 350 -2.84E2
1258 350 -2.84E2
120 351 1
121 351 1
1221 351 -2.84E2
1262 351 -2.84E2
120 352 1
126 352 1
1226 352 -2.84E2
1267 352 -2.84E2
120 353 1
127 353 1
1232 353 -2.84E2
1273 353 -2.84E2
120 354 1
128 354 1
1236 354 -2.84E2
1277 354 -2.84E2
120 355 1
129 355 1
1243 355 -2.84E2
1284 355 -2.84E2
121 356 1
122 356 -1
1222 356 -2.84E2
1263 356 -2.84E2
121 357 1
123 357 -1
1223 357 -2.84E2
1264 357 -2.84E2
121 358 1
124 358 -1
1224 358 -2.84E2
1265 358 -2.84E2
121 359 1
125 359 -1
1225 359 -2.84E2
1266 359 -2.84E2
121 360 1
126 360 -1
1231 360 -2.84E2
1272 360 -2.84E2
121 361 1
127 361 -1
1234 361 -2.84E2
1275 361 -2.84E2
121 362 1
128 362 -1
1240 362 -2.84E2
1281 362 -2.84E2
121 363 1
129 363 -1
1248 363 -2.84E2
1289 363 -2.84E2
122 364 1
123 364 -1
1213 364 -2.84E2
1254 364 -2.84E2
122 365 1
124 365 -1
1215 365 -2.84E2
1256 365 -2.84E2
122 366 1
125 366 -1
1218 366 -2.84E2
1259 366 -2.84E2
122 367 1
126 367 -1
1227 367 -2.84E2
1268 367 -2.84E2
122 368 1
129 368 -1
1244 368 -2.84E2
1285 368 -2.84E2
122 369 -1
123 369 1
1213 369 -2.84E2
1254 369 -2.84E2
122 370 -1
124 370 1
1215 370 -2.84E2
1256 370 -2.84E2
122 371 -1
125 371 1
1218 371 -2.84E2
1259 371 -2.84E2
122 372 -1
126 372 1
1227 372 -2.84E2
1268 372 -2.84E2
122 373 -1
129 373 1
1244 373 -2.84E2
1285 373 -2.84E2
123 374 1
124 374 -1
1216 374 -2.84E2
1257 374 -2.84E2
123 375 1
125 375 -1
1219 375 -2.84E2
1260 375 -2.84E2
123 376 1
126 376 -1
1228 376 -2.84E2
1269 376 -2.84E2
123 377 1
128 377 -1
1237 377 -2.84E2
1278 377 -2.84E2
123 378 1
129 378 -1
1245 378 -2.84E2
1286 378 -2.84E2
123 379 -1
124 379 1
1216 379 -2.84E2
1257 379 -2.84E2
123 380 -1
125 380 1
1219 380 -2.84E2
1260 380 -2.84E2
123 381 -1
126 381 1
1228 381 -2.84E2
1269 381 -2.84E2
123 382 -1
128 382 1
1237 382 -2.84E2
1278 382 -2.84E2
123 383 -1
129 383 1
1245 383 -2.84E2
1286 383 -2.84E2
124 384 1
125 384 -1
1220 384 -2.84E2
1261 384 -2.84E2
124 385 1
126 385 -1
1229 385 -2.84E2
1270 385 -2.84E2
124 386 1
128 386 -1
1238 386 -2.84E2
1279 386 -2.84E2
124 387 1
129 387 -1
1246 387 -2.84E2
1287 387 -2.84E2
124 388 -1
125 388 1
1220 388 -2.84E2
1261 388 -2.84E2
124 389 -1
126 389 1
1229 389 -2.84E2
1270 389 -2.84E2
124 390 -1
128 390 1
1238 390 -2.84E2
1279 390 -2.84E2
124 391 -1
129 391 1
1246 391 -2.84E2
1287 391 -2.84E2
125 392 1
126 392 -1
1230 392 -2.84E2
1271 392 -2.84E2
125 393 1
127 393 -1
1233 393 -2.84E2
1274 393 -2.84E2
125 394 1
128 394 -1
1239 394 -2.84E2
1280 394 -2.84E2
125 395 1
129 395 -1
1247 395 -2.84E2
1288 395 -2.84E2
125 396 -1
126 396 1
1230 396 -2.84E2
1271 396 -2.84E2
125 397 -1
127 397 1
1233 397 -2.84E2
1274 397 -2.84E2
125 398 -1
128 398 1
1239 398 -2.84E2
1280 398 -2.84E2
125 399 -1
129 399 1
1247 399 -2.84E2
1288 399 -2.84E2
126 400 1
127 400 -1
1235 400 -2.84E2
1276 400 -2.84E2
126 401 1
128 401 -1
1241 401 -2.84E2
1282 401 -2.84E2
126 402 1
129 402 -1
1249 402 -2.84E2
1290 402 -2.84E2
126 403 -1
127 403 1
1235 403 -2.84E2
1276 403 -2.84E2
126 404 -1
128 404 1
1241 404 -2.84E2
1282 404 -2.84E2
126 405 -1
129 405 1
1249 405 -2.84E2
1290 405 -2.84E2
127 406 1
128 406 -1
1242 406 -2.84E2
1283 406 -2.84E2
127 407 1
129 407 -1
1250 407 -2.84E2
1291 407 -2.84E2
127 408 -1
128 408 1
1242 408 -2.84E2
1283 408 -2.84E2
127 409 -1
129 409 1
1250 409 -2.84E2
1291 409 -2.84E2
128 410 1
129 410 -1
1251 410 -2.84E2
1292 410 -2.84E2
128 411 -1
129 411 1
1251 411 -2.84E2
1292 411 -2.84E2
130 412 1
1236 412 -3.204E3
1277 412 -3.204E3
131 413 1
1237 413 -3.204E3
1278 413 -3.204E3
132 414 1
1238 414 -3.204E3
1279 414 -3.204E3
133 415 1
1239 415 -3.204E3
1280 415 -3.204E3
134 416 1
1240 416 -3.204E3
1281 416 -3.204E3
135 417 1
1241 417 -3.204E3
1282 417 -3.204E3
136 418 1
1242 418 -3.204E3
1283 418 -3.204E3
137 419 1
1250 419 -3.204E3
1291 419 -3.204E3
138 420 1
1232 420 -3.204E3
1273 420 -3.204E3
139 421 1
1233 421 -3.204E3
1274 421 -3.204E3
140 422 1
1234 422 -3.204E3
1275 422 -3.204E3
141 423 1
1235 423 -3.204E3
1276 423 -3.204E3
142 424 1
1251 424 -3.204E3
1292 424 -3.204E3
143 425 1
152 425 1
1251 425 -3.204E3
1292 425 -3.204E3
143 426 1
145 426 1
1236 426 -3.204E3
1277 426 -3.204E3
143 427 1
147 427 1
1237 427 -3.204E3
1278 427 -3.204E3
143 428 1
148 428 1
1238 428 -3.204E3
1279 428 -3.204E3
143 429 1
149 429 1
1239 429 -3.204E3
1280 429 -3.204E3
143 430 1
150 430 1
1240 430 -3.204E3
1281 430 -3.204E3
143 431 1
151 431 1
1241 431 -3.204E3
1282 431 -3.204E3
143 432 1
144 432 1
1242 432 -3.204E3
1283 432 -3.204E3
144 433 1
145 433 -1
1232 433 -3.204E3
1273 433 -3.204E3
144 434 1
149 434 -1
1233 434 -3.204E3
1274 434 -3.204E3
144 435 1
150 435 -1
1234 435 -3.204E3
1275 435 -3.204E3
144 436 1
151 436 -1
1235 436 -3.204E3
1276 436 -3.204E3
144 437 1
152 437 -1
1250 437 -3.204E3
1291 437 -3.204E3
145 438 1
146 438 -1
1211 438 -3.204E3
1252 438 -3.204E3
145 439 1
147 439 -1
1212 439 -3.204E3
1253 439 -3.204E3
145 440 1
148 440 -1
1214 440 -3.204E3
1255 440 -3.204E3
145 441 1
149 441 -1
1217 441 -3.204E3
1258 441 -3.204E3
145 442 1
150 442 -1
1221 442 -3.204E3
1262 442 -3.204E3
145 443 1
151 443 -1
1226 443 -3.204E3
1267 443 -3.204E3
145 444 1
152 444 -1
1243 444 -3.204E3
1284 444 -3.204E3
145 445 -1
146 445 1
1211 445 -3.204E3
1252 445 -3.204E3
145 446 -1
147 446 1
1212 446 -3.204E3
1253 446 -3.204E3
145 447 -1
148 447 1
1214 447 -3.204E3
1255 447 -3.204E3
145 448 -1
149 448 1
1217 448 -3.204E3
1258 448 -3.204E3
145 449 -1
150 449 1
1221 449 -3.204E3
1262 449 -3.204E3
145 450 -1
151 450 1
1226 450 -3.204E3
1267 450 -3.204E3
145 451 -1
152 451 1
1243 451 -3.204E3
1284 451 -3.204E3
146 452 1
147 452 -1
1213 452 -3.204E3
1254 452 -3.204E3
146 453 1
148 453 -1
1215 453 -3.204E3
1256 453 -3.204E3
146 454 1
149 454 -1
1218 454 -3.204E3
1259 454 -3.204E3
146 455 1
150 455 -1
1222 455 -3.204E3
1263 455 -3.204E3
146 456 1
151 456 -1
1227 456 -3.204E3
1268 456 -3.204E3
146 457 1
152 457 -1
1244 457 -3.204E3
1285 457 -3.204E3
146 458 -1
147 458 1
1213 458 -3.204E3
1254 458 -3.204E3
146 459 -1
148 459 1
1215 459 -3.204E3
1256 459 -3.204E3
146 460 -1
149 460 1
1218 460 -3.204E3
1259 460 -3.204E3
146 461 -1
150 461 1
1222 461 -3.204E3
1263 461 -3.204E3
146 462 -1
151 462 1
1227 462 -3.204E3
1268 462 -3.204E3
146 463 -1
152 463 1
1244 463 -3.204E3
1285 463 -3.204E3
147 464 1
148 464 -1
1216 464 -3.204E3
1257 464 -3.204E3
147 465 1
149 465 -1
1219 465 -3.204E3
1260 465 -3.204E3
147 466 1
150 466 -1
1223 466 -3.204E3
1264 466 -3.204E3
147 467 1
151 467 -1
1228 467 -3.204E3
1269 467 -3.204E3
147 468 1
152 468 -1
1245 468 -3.204E3
1286 468 -3.204E3
147 469 -1
148 469 1
1216 469 -3.204E3
1257 469 -3.204E3
147 470 -1
149 470 1
1219 470 -3.204E3
1260 470 -3.204E3
147 471 -1
150 471 1
1223 471 -3.204E3
1264 471 -3.204E3
147 472 -1
151 472 1
1228 472 -3.204E3
1269 472 -3.204E3
147 473 -1
152 473 1
1245 473 -3.204E3
1286 473 -3.204E3
148 474 1
149 474 -1
1220 474 -3.204E3
1261 474 -3.204E3
148 475 1
150 475 -1
1224 475 -3.204E3
1265 475 -3.204E3
148 476 1
151 476 -1
1229 476 -3.204E3
1270 476 -3.204E3
148 477 1
152 477 -1
1246 477 -3.204E3
1287 477 -3.204E3
148 478 -1
149 478 1
1220 478 -3.204E3
1261 478 -3.204E3
148 479 -1
150 479 1
1224 479 -3.204E3
1265 479 -3.204E3
148 480 -1
151 480 1
1229 480 -3.204E3
1270 480 -3.204E3
148 481 -1
152 481 1
1246 481 -3.204E3
1287 481 -3.204E3
149 482 1
150 482 -1
1225 482 -3.204E3
1266 482 -3.204E3
149 483 1
151 483 -1
1230 483 -3.204E3
1271 483 -3.204E3
149 484 1
152 484 -1
1247 484 -3.204E3
1288 484 -3.204E3
149 485 -1
150 485 1
1225 485 -3.204E3
1266 485 -3.204E3
149 486 -1
151 486 1
1230 486 -3.204E3
1271 486 -3.204E3
149 487 -1
152 487 1
1247 487 -3.204E3
1288 487 -3.204E3
150 488 1
151 488 -1
1231 488 -3.204E3
1272 488 -3.204E3
150 489 1
152 489 -1
1248 489 -3.204E3
1289 489 -3.204E3
150 490 -1
151 490 1
1231 490 -3.204E3
1272 490 -3.204E3
150 491 -1
152 491 1
1248 491 -3.204E3
1289 491 -3.204E3
151 492 1
152 492 -1
1249 492 -3.204E3
1290 492 -3.204E3
151 493 -1
152 493 1
1249 493 -3.204E3
1290 493 -3.204E3
153 494 1
1235 494 -6.357E3
1276 494 -6.357E3
154 495 1
1241 495 -6.357E3
1282 495 -6.357E3
155 496 1
1249 496 -6.357E3
1290 496 -6.357E3
156 497 1
1211 497 -6.357E3
1252 497 -6.357E3
157 498 1
1212 498 -6.357E3
1253 498 -6.357E3
158 499 1
1214 499 -6.357E3
1255 499 -6.357E3
159 500 1
1217 500 -6.357E3
1258 500 -6.357E3
160 501 1
1221 501 -6.357E3
1262 501 -6.357E3
161 502 1
1226 502 -6.357E3
1267 502 -6.357E3
162 503 1
1227 503 -6.357E3
1268 503 -6.357E3
163 504 1
1228 504 -6.357E3
1269 504 -6.357E3
164 505 1
1229 505 -6.357E3
1270 505 -6.357E3
165 506 1
1230 506 -6.357E3
1271 506 -6.357E3
166 507 1
1231 507 -6.357E3
1272 507 -6.357E3
167 508 1
1232 508 -6.357E3
1273 508 -6.357E3
168 509 1
1236 509 -6.357E3
1277 509 -6.357E3
169 510 1
1243 510 -6.357E3
1284 510 -6.357E3
170 511 1
172 511 1
1211 511 -6.357E3
1252 511 -6.357E3
170 512 1
173 512 1
1212 512 -6.357E3
1253 512 -6.357E3
170 513 1
174 513 1
1214 513 -6.357E3
1255 513 -6.357E3
170 514 1
175 514 1
1217 514 -6.357E3
1258 514 -6.357E3
170 515 1
176 515 1
1221 515 -6.357E3
1262 515 -6.357E3
170 516 1
171 516 1
1226 516 -6.357E3
1267 516 -6.357E3
170 517 1
177 517 1
1232 517 -6.357E3
1273 517 -6.357E3
170 518 1
178 518 1
1236 518 -6.357E3
1277 518 -6.357E3
170 519 1
179 519 1
1243 519 -6.357E3
1284 519 -6.357E3
171 520 1
172 520 -1
1227 520 -6.357E3
1268 520 -6.357E3
171 521 1
173 521 -1
1228 521 -6.357E3
1269 521 -6.357E3
171 522 1
174 522 -1
1229 522 -6.357E3
1270 522 -6.357E3
171 523 1
175 523 -1
1230 523 -6.357E3
1271 523 -6.357E3
171 524 1
176 524 -1
1231 524 -6.357E3
1272 524 -6.357E3
171 525 1
177 525 -1
1235 525 -6.357E3
1276 525 -6.357E3
171 526 1
178 526 -1
1241 526 -6.357E3
1282 526 -6.357E3
171 527 1
179 527 -1
1249 527 -6.357E3
1290 527 -6.357E3
172 528 1
173 528 -1
1213 528 -6.357E3
1254 528 -6.357E3
172 529 1
174 529 -1
1215 529 -6.357E3
1256 529 -6.357E3
172 530 1
175 530 -1
1218 530 -6.357E3
1259 530 -6.357E3
172 531 1
176 531 -1
1222 531 -6.357E3
1263 531 -6.357E3
172 532 1
179 532 -1
1244 532 -6.357E3
1285 532 -6.357E3
172 533 -1
173 533 1
1213 533 -6.357E3
1254 533 -6.357E3
172 534 -1
174 534 1
1215 534 -6.357E3
1256 534 -6.357E3
172 535 -1
175 535 1
1218 535 -6.357E3
1259 535 -6.357E3
172 536 -1
176 536 1
1222 536 -6.357E3
1263 536 -6.357E3
172 537 -1
179 537 1
1244 537 -6.357E3
1285 537 -6.357E3
173 538 1
174 538 -1
1216 538 -6.357E3
1257 538 -6.357E3
173 539 1
175 539 -1
1219 539 -6.357E3
1260 539 -6.357E3
173 540 1
176 540 -1
1223 540 -6.357E3
1264 540 -6.357E3
173 541 1
178 541 -1
1237 541 -6.357E3
1278 541 -6.357E3
173 542 1
179 542 -1
1245 542 -6.357E3
1286 542 -6.357E3
173 543 -1
174 543 1
1216 543 -6.357E3
1257 543 -6.357E3
173 544 -1
175 544 1
1219 544 -6.357E3
1260 544 -6.357E3
173 545 -1
176 545 1
1223 545 -6.357E3
1264 545 -6.357E3
173 546 -1
178 546 1
1237 546 -6.357E3
1278 546 -6.357E3
173 547 -1
179 547 1
1245 547 -6.357E3
1286 547 -6.357E3
174 548 1
175 548 -1
1220 548 -6.357E3
1261 548 -6.357E3
174 549 1
176 549 -1
1224 549 -6.357E3
1265 549 -6.357E3
174 550 1
178 550 -1
1238 550 -6.357E3
1279 550 -6.357E3
174 551 1
179 551 -1
1246 551 -6.357E3
1287 551 -6.357E3
174 552 -1
175 552 1
1220 552 -6.357E3
1261 552 -6.357E3
174 553 -1
176 553 1
1224 553 -6.357E3
1265 553 -6.357E3
174 554 -1
178 554 1
1238 554 -6.357E3
1279 554 -6.357E3
174 555 -1
179 555 1
1246 555 -6.357E3
1287 555 -6.357E3
175 556 1
176 556 -1
1225 556 -6.357E3
1266 556 -6.357E3
175 557 1
177 557 -1
1233 557 -6.357E3
1274 557 -6.357E3
175 558 1
178 558 -1
1239 558 -6.357E3
1280 558 -6.357E3
175 559 1
179 559 -1
1247 559 -6.357E3
1288 559 -6.357E3
175 560 -1
176 560 1
1225 560 -6.357E3
1266 560 -6.357E3
175 561 -1
177 561 1
1233 561 -6.357E3
1274 561 -6.357E3
175 562 -1
178 562 1
1239 562 -6.357E3
1280 562 -6.357E3
175 563 -1
179 563 1
1247 563 -6.357E3
1288 563 -6.357E3
176 564 1
177 564 -1
1234 564 -6.357E3
1275 564 -6.357E3
176 565 1
178 565 -1
1240 565 -6.357E3
1281 565 -6.357E3
176 566 1
179 566 -1
1248 566 -6.357E3
1289 566 -6.357E3
176 567 -1
177 567 1
1234 567 -6.357E3
1275 567 -6.357E3
176 568 -1
178 568 1
1240 568 -6.357E3
1281 568 -6.357E3
176 569 -1
179 569 1
1248 569 -6.357E3
1289 569 -6.357E3
177 570 1
178 570 -1
1242 570 -6.357E3
1283 570 -6.357E3
177 571 1
179 571 -1
1250 571 -6.357E3
1291 571 -6.357E3
177 572 -1
178 572 1
1242 572 -6.357E3
1283 572 -6.357E3
177 573 -1
179 573 1
1250 573 -6.357E3
1291 573 -6.357E3
178 574 1
179 574 -1
1251 574 -6.357E3
1292 574 -6.357E3
178 575 -1
179 575 1
1251 575 -6.357E3
1292 575 -6.357E3
180 576 1
1235 576 -1.431E3
1276 576 -1.431E3
181 577 1
1241 577 -1.431E3
1282 577 -1.431E3
182 578 1
1243 578 -1.431E3
1284 578 -1.431E3
183 579 1
1244 579 -1.431E3
1285 579 -1.431E3
184 580 1
1245 580 -1.431E3
1286 580 -1.431E3
185 581 1
1246 581 -1.431E3
1287 581 -1.431E3
186 582 1
1247 582 -1.431E3
1288 582 -1.431E3
187 583 1
1248 583 -1.431E3
1289 583 -1.431E3
188 584 1
1249 584 -1.431E3
1290 584 -1.431E3
189 585 1
1250 585 -1.431E3
1291 585 -1.431E3
190 586 1
1251 586 -1.431E3
1292 586 -1.431E3
191 587 1
1226 587 -1.431E3
1267 587 -1.431E3
192 588 1
1227 588 -1.431E3
1268 588 -1.431E3
193 589 1
1228 589 -1.431E3
1269 589 -1.431E3
194 590 1
1229 590 -1.431E3
1270 590 -1.431E3
195 591 1
1230 591 -1.431E3
1271 591 -1.431E3
196 592 1
1231 592 -1.431E3
1272 592 -1.431E3
197 593 1
199 593 1
1243 593 -1.431E3
1284 593 -1.431E3
197 594 1
200 594 1
1244 594 -1.431E3
1285 594 -1.431E3
197 595 1
201 595 1
1245 595 -1.431E3
1286 595 -1.431E3
197 596 1
202 596 1
1246 596 -1.431E3
1287 596 -1.431E3
197 597 1
203 597 1
1247 597 -1.431E3
1288 597 -1.431E3
197 598 1
204 598 1
1248 598 -1.431E3
1289 598 -1.431E3
197 599 1
198 599 1
1249 599 -1.431E3
1290 599 -1.431E3
197 600 1
205 600 1
1250 600 -1.431E3
1291 600 -1.431E3
197 601 1
206 601 1
1251 601 -1.431E3
1292 601 -1.431E3
198 602 1
199 602 -1
1226 602 -1.431E3
1267 602 -1.431E3
198 603 1
200 603 -1
1227 603 -1.431E3
1268 603 -1.431E3
198 604 1
201 604 -1
1228 604 -1.431E3
1269 604 -1.431E3
198 605 1
202 605 -1
1229 605 -1.431E3
1270 605 -1.431E3
198 606 1
203 606 -1
1230 606 -1.431E3
1271 606 -1.431E3
198 607 1
204 607 -1
1231 607 -1.431E3
1272 607 -1.431E3
198 608 1
205 608 -1
1235 608 -1.431E3
1276 608 -1.431E3
198 609 1
206 609 -1
1241 609 -1.431E3
1282 609 -1.431E3
199 610 1
200 610 -1
1211 610 -1.431E3
1252 610 -1.431E3
199 611 1
201 611 -1
1212 611 -1.431E3
1253 611 -1.431E3
199 612 1
202 612 -1
1214 612 -1.431E3
1255 612 -1.431E3
199 613 1
203 613 -1
1217 613 -1.431E3
1258 613 -1.431E3
199 614 1
204 614 -1
1221 614 -1.431E3
1262 614 -1.431E3
199 615 1
205 615 -1
1232 615 -1.431E3
1273 615 -1.431E3
199 616 1
206 616 -1
1236 616 -1.431E3
1277 616 -1.431E3
199 617 -1
200 617 1
1211 617 -1.431E3
1252 617 -1.431E3
199 618 -1
201 618 1
1212 618 -1.431E3
1253 618 -1.431E3
199 619 -1
202 619 1
1214 619 -1.431E3
1255 619 -1.431E3
199 620 -1
203 620 1
1217 620 -1.431E3
1258 620 -1.431E3
199 621 -1
204 621 1
1221 621 -1.431E3
1262 621 -1.431E3
199 622 -1
205 622 1
1232 622 -1.431E3
1273 622 -1.431E3
199 623 -1
206 623 1
1236 623 -1.431E3
1277 623 -1.431E3
200 624 1
201 624 -1
1213 624 -1.431E3
1254 624 -1.431E3
200 625 1
202 625 -1
1215 625 -1.431E3
1256 625 -1.431E3
200 626 1
203 626 -1
1218 626 -1.431E3
1259 626 -1.431E3
200 627 1
204 627 -1
1222 627 -1.431E3
1263 627 -1.431E3
200 628 -1
201 628 1
1213 628 -1.431E3
1254 628 -1.431E3
200 629 -1
202 629 1
1215 629 -1.431E3
1256 629 -1.431E3
200 630 -1
203 630 1
1218 630 -1.431E3
1259 630 -1.431E3
200 631 -1
204 631 1
1222 631 -1.431E3
1263 631 -1.431E3
201 632 1
202 632 -1
1216 632 -1.431E3
1257 632 -1.431E3
201 633 1
203 633 -1
1219 633 -1.431E3
1260 633 -1.431E3
201 634 1
204 634 -1
1223 634 -1.431E3
1264 634 -1.431E3
201 635 1
206 635 -1
1237 635 -1.431E3
1278 635 -1.431E3
201 636 -1
202 636 1
1216 636 -1.431E3
1257 636 -1.431E3
201 637 -1
203 637 1
1219 637 -1.431E3
1260 637 -1.431E3
201 638 -1
204 638 1
1223 638 -1.431E3
1264 638 -1.431E3
201 639 -1
206 639 1
1237 639 -1.431E3
1278 639 -1.431E3
202 640 1
203 640 -1
1220 640 -1.431E3
1261 640 -1.431E3
202 641 1
204 641 -1
1224 641 -1.431E3
1265 641 -1.431E3
202 642 1
206 642 -1
1238 642 -1.431E3
1279 642 -1.431E3
202 643 -1
203 643 1
1220 643 -1.431E3
1261 643 -1.431E3
202 644 -1
204 644 1
1224 644 -1.431E3
1265 644 -1.431E3
202 645 -1
206 645 1
1238 645 -1.431E3
1279 645 -1.431E3
203 646 1
204 646 -1
1225 646 -1.431E3
1266 646 -1.431E3
203 647 1
205 647 -1
1233 647 -1.431E3
1274 647 -1.431E3
203 648 1
206 648 -1
1239 648 -1.431E3
1280 648 -1.431E3
203 649 -1
204 649 1
1225 649 -1.431E3
1266 649 -1.431E3
203 650 -1
205 650 1
1233 650 -1.431E3
1274 650 -1.431E3
203 651 -1
206 651 1
1239 651 -1.431E3
1280 651 -1.431E3
204 652 1
205 652 -1
1234 652 -1.431E3
1275 652 -1.431E3
204 653 1
206 653 -1
1240 653 -1.431E3
1281 653 -1.431E3
204 654 -1
205 654 1
1234 654 -1.431E3
1275 654 -1.431E3
204 655 -1
206 655 1
1240 655 -1.431E3
1281 655 -1.431E3
205 656 1
206 656 -1
1242 656 -1.431E3
1283 656 -1.431E3
205 657 -1
206 657 1
1242 657 -1.431E3
1283 657 -1.431E3
207 658 1
1242 658 -5.12E2
1283 658 -5.12E2
208 659 1
1250 659 -5.12E2
1291 659 -5.12E2
209 660 1
1211 660 -5.12E2
1252 660 -5.12E2
210 661 1
1212 661 -5.12E2
1253 661 -5.12E2
211 662 1
1214 662 -5.12E2
1255 662 -5.12E2
212 663 1
1217 663 -5.12E2
1258 663 -5.12E2
213 664 1
1221 664 -5.12E2
1262 664 -5.12E2
214 665 1
1226 665 -5.12E2
1267 665 -5.12E2
215 666 1
1232 666 -5.12E2
1273 666 -5.12E2
216 667 1
1233 667 -5.12E2
1274 667 -5.12E2
217 668 1
1234 668 -5.12E2
1275 668 -5.12E2
218 669 1
1235 669 -5.12E2
1276 669 -5.12E2
219 670 1
1236 670 -5.12E2
1277 670 -5.12E2
220 671 1
1243 671 -5.12E2
1284 671 -5.12E2
221 672 1
223 672 1
1211 672 -5.12E2
1252 672 -5.12E2
221 673 1
224 673 1
1212 673 -5.12E2
1253 673 -5.12E2
221 674 1
225 674 1
1214 674 -5.12E2
1255 674 -5.12E2
221 675 1
226 675 1
1217 675 -5.12E2
1258 675 -5.12E2
221 676 1
227 676 1
1221 676 -5.12E2
1262 676 -5.12E2
221 677 1
228 677 1
1226 677 -5.12E2
1267 677 -5.12E2
221 678 1
222 678 1
1232 678 -5.12E2
1273 678 -5.12E2
221 679 1
229 679 1
1236 679 -5.12E2
1277 679 -5.12E2
221 680 1
230 680 1
1243 680 -5.12E2
1284 680 -5.12E2
222 681 1
226 681 -1
1233 681 -5.12E2
1274 681 -5.12E2
222 682 1
227 682 -1
1234 682 -5.12E2
1275 682 -5.12E2
222 683 1
228 683 -1
1235 683 -5.12E2
1276 683 -5.12E2
222 684 1
229 684 -1
1242 684 -5.12E2
1283 684 -5.12E2
222 685 1
230 685 -1
1250 685 -5.12E2
1291 685 -5.12E2
223 686 1
224 686 -1
1213 686 -5.12E2
1254 686 -5.12E2
223 687 1
225 687 -1
1215 687 -5.12E2
1256 687 -5.12E2
223 688 1
226 688 -1
1218 688 -5.12E2
1259 688 -5.12E2
223 689 1
227 689 -1
1222 689 -5.12E2
1263 689 -5.12E2
223 690 1
228 690 -1
1227 690 -5.12E2
1268 690 -5.12E2
223 691 1
230 691 -1
1244 691 -5.12E2
1285 691 -5.12E2
223 692 -1
224 692 1
1213 692 -5.12E2
1254 692 -5.12E2
223 693 -1
225 693 1
1215 693 -5.12E2
1256 693 -5.12E2
223 694 -1
226 694 1
1218 694 -5.12E2
1259 694 -5.12E2
223 695 -1
227 695 1
1222 695 -5.12E2
1263 695 -5.12E2
223 696 -1
228 696 1
1227 696 -5.12E2
1268 696 -5.12E2
223 697 -1
230 697 1
1244 697 -5.12E2
1285 697 -5.12E2
224 698 1
225 698 -1
1216 698 -5.12E2
1257 698 -5.12E2
224 699 1
226 699 -1
1219 699 -5.12E2
1260 699 -5.12E2
224 700 1
227 700 -1
1223 700 -5.12E2
1264 700 -5.12E2
224 701 1
228 701 -1
1228 701 -5.12E2
1269 701 -5.12E2
224 702 1
229 702 -1
1237 702 -5.12E2
1278 702 -5.12E2
224 703 1
230 703 -1
1245 703 -5.12E2
1286 703 -5.12E2
224 704 -1
225 704 1
1216 704 -5.12E2
1257 704 -5.12E2
224 705 -1
226 705 1
1219 705 -5.12E2
1260 705 -5.12E2
224 706 -1
227 706 1
1223 706 -5.12E2
1264 706 -5.12E2
224 707 -1
228 707 1
1228 707 -5.12E2
1269 707 -5.12E2
224 708 -1
229 708 1
1237 708 -5.12E2
1278 708 -5.12E2
224 709 -1
230 709 1
1245 709 -5.12E2
1286 709 -5.12E2
225 710 1
226 710 -1
1220 710 -5.12E2
1261 710 -5.12E2
225 711 1
227 711 -1
1224 711 -5.12E2
1265 711 -5.12E2
225 712 1
228 712 -1
1229 712 -5.12E2
1270 712 -5.12E2
225 713 1
229 713 -1
1238 713 -5.12E2
1279 713 -5.12E2
225 714 1
230 714 -1
1246 714 -5.12E2
1287 714 -5.12E2
225 715 -1
226 715 1
1220 715 -5.12E2
1261 715 -5.12E2
225 716 -1
227 716 1
1224 716 -5.12E2
1265 716 -5.12E2
225 717 -1
228 717 1
1229 717 -5.12E2
1270 717 -5.12E2
225 718 -1
229 718 1
1238 718 -5.12E2
1279 718 -5.12E2
225 719 -1
230 719 1
1246 719 -5.12E2
1287 719 -5.12E2
226 720 1
227 720 -1
1225 720 -5.12E2
1266 720 -5.12E2
226 721 1
228 721 -1
1230 721 -5.12E2
1271 721 -5.12E2
226 722 1
229 722 -1
1239 722 -5.12E2
1280 722 -5.12E2
226 723 1
230 723 -1
1247 723 -5.12E2
1288 723 -5.12E2
226 724 -1
227 724 1
1225 724 -5.12E2
1266 724 -5.12E2
226 725 -1
228 725 1
1230 725 -5.12E2
1271 725 -5.12E2
226 726 -1
229 726 1
1239 726 -5.12E2
1280 726 -5.12E2
226 727 -1
230 727 1
1247 727 -5.12E2
1288 727 -5.12E2
227 728 1
228 728 -1
1231 728 -5.12E2
1272 728 -5.12E2
227 729 1
229 729 -1
1240 729 -5.12E2
1281 729 -5.12E2
227 730 1
230 730 -1
1248 730 -5.12E2
1289 730 -5.12E2
227 731 -1
228 731 1
1231 731 -5.12E2
1272 731 -5.12E2
227 732 -1
229 732 1
1240 732 -5.12E2
1281 732 -5.12E2
227 733 -1
230 733 1
1248 733 -5.12E2
1289 733 -5.12E2
228 734 1
229 734 -1
1241 734 -5.12E2
1282 734 -5.12E2
228 735 1
230 735 -1
1249 735 -5.12E2
1290 735 -5.12E2
228 736 -1
229 736 1
1241 736 -5.12E2
1282 736 -5.12E2
228 737 -1
230 737 1
1249 737 -5.12E2
1290 737 -5.12E2
229 738 1
230 738 -1
1251 738 -5.12E2
1292 738 -5.12E2
229 739 -1
230 739 1
1251 739 -5.12E2
1292 739 -5.12E2
231 740 1
1235 740 -2.318E3
1276 740 -2.318E3
232 741 1
1236 741 -2.318E3
1277 741 -2.318E3
233 742 1
1237 742 -2.318E3
1278 742 -2.318E3
234 743 1
1238 743 -2.318E3
1279 743 -2.318E3
235 744 1
1239 744 -2.318E3
1280 744 -2.318E3
236 745 1
1240 745 -2.318E3
1281 745 -2.318E3
237 746 1
1241 746 -2.318E3
1282 746 -2.318E3
238 747 1
1242 747 -2.318E3
1283 747 -2.318E3
239 748 1
1249 748 -2.318E3
1290 748 -2.318E3
240 749 1
1226 749 -2.318E3
1267 749 -2.318E3
241 750 1
1227 750 -2.318E3
1268 750 -2.318E3
242 751 1
1228 751 -2.318E3
1269 751 -2.318E3
243 752 1
1229 752 -2.318E3
1270 752 -2.318E3
244 753 1
1230 753 -2.318E3
1271 753 -2.318E3
245 754 1
1231 754 -2.318E3
1272 754 -2.318E3
246 755 1
1251 755 -2.318E3
1292 755 -2.318E3
247 756 1
256 756 1
1251 756 -2.318E3
1292 756 -2.318E3
247 757 1
249 757 1
1236 757 -2.318E3
1277 757 -2.318E3
247 758 1
251 758 1
1237 758 -2.318E3
1278 758 -2.318E3
247 759 1
252 759 1
1238 759 -2.318E3
1279 759 -2.318E3
247 760 1
253 760 1
1239 760 -2.318E3
1280 760 -2.318E3
247 761 1
254 761 1
1240 761 -2.318E3
1281 761 -2.318E3
247 762 1
248 762 1
1241 762 -2.318E3
1282 762 -2.318E3
247 763 1
255 763 1
1242 763 -2.318E3
1283 763 -2.318E3
248 764 1
249 764 -1
1226 764 -2.318E3
1267 764 -2.318E3
248 765 1
250 765 -1
1227 765 -2.318E3
1268 765 -2.318E3
248 766 1
251 766 -1
1228 766 -2.318E3
1269 766 -2.318E3
248 767 1
252 767 -1
1229 767 -2.318E3
1270 767 -2.318E3
248 768 1
253 768 -1
1230 768 -2.318E3
1271 768 -2.318E3
248 769 1
254 769 -1
1231 769 -2.318E3
1272 769 -2.318E3
248 770 1
255 770 -1
1235 770 -2.318E3
1276 770 -2.318E3
248 771 1
256 771 -1
1249 771 -2.318E3
1290 771 -2.318E3
249 772 1
250 772 -1
1211 772 -2.318E3
1252 772 -2.318E3
249 773 1
251 773 -1
1212 773 -2.318E3
1253 773 -2.318E3
249 774 1
252 774 -1
1214 774 -2.318E3
1255 774 -2.318E3
249 775 1
253 775 -1
1217 775 -2.318E3
1258 775 -2.318E3
249 776 1
254 776 -1
1221 776 -2.318E3
1262 776 -2.318E3
249 777 1
255 777 -1
1232 777 -2.318E3
1273 777 -2.318E3
249 778 1
256 778 -1
1243 778 -2.318E3
1284 778 -2.318E3
249 779 -1
250 779 1
1211 779 -2.318E3
1252 779 -2.318E3
249 780 -1
251 780 1
1212 780 -2.318E3
1253 780 -2.318E3
249 781 -1
252 781 1
1214 781 -2.318E3
1255 781 -2.318E3
249 782 -1
253 782 1
1217 782 -2.318E3
1258 782 -2.318E3
249 783 -1
254 783 1
1221 783 -2.318E3
1262 783 -2.318E3
249 784 -1
255 784 1
1232 784 -2.318E3
1273 784 -2.318E3
249 785 -1
256 785 1
1243 785 -2.318E3
1284 785 -2.318E3
250 786 1
251 786 -1
1213 786 -2.318E3
1254 786 -2.318E3
250 787 1
252 787 -1
1215 787 -2.318E3
1256 787 -2.318E3
250 788 1
253 788 -1
1218 788 -2.318E3
1259 788 -2.318E3
250 789 1
254 789 -1
1222 789 -2.318E3
1263 789 -2.318E3
250 790 1
256 790 -1
1244 790 -2.318E3
1285 790 -2.318E3
250 791 -1
251 791 1
1213 791 -2.318E3
1254 791 -2.318E3
250 792 -1
252 792 1
1215 792 -2.318E3
1256 792 -2.318E3
250 793 -1
253 793 1
1218 793 -2.318E3
1259 793 -2.318E3
250 794 -1
254 794 1
1222 794 -2.318E3
1263 794 -2.318E3
250 795 -1
256 795 1
1244 795 -2.318E3
1285 795 -2.318E3
251 796 1
252 796 -1
1216 796 -2.318E3
1257 796 -2.318E3
251 797 1
253 797 -1
1219 797 -2.318E3
1260 797 -2.318E3
251 798 1
254 798 -1
1223 798 -2.318E3
1264 798 -2.318E3
251 799 1
256 799 -1
1245 799 -2.318E3
1286 799 -2.318E3
251 800 -1
252 800 1
1216 800 -2.318E3
1257 800 -2.318E3
251 801 -1
253 801 1
1219 801 -2.318E3
1260 801 -2.318E3
251 802 -1
254 802 1
1223 802 -2.318E3
1264 802 -2.318E3
251 803 -1
256 803 1
1245 803 -2.318E3
1286 803 -2.318E3
252 804 1
253 804 -1
1220 804 -2.318E3
1261 804 -2.318E3
252 805 1
254 805 -1
1224 805 -2.318E3
1265 805 -2.318E3
252 806 1
256 806 -1
1246 806 -2.318E3
1287 806 -2.318E3
252 807 -1
253 807 1
1220 807 -2.318E3
1261 807 -2.318E3
252 808 -1
254 808 1
1224 808 -2.318E3
1265 808 -2.318E3
252 809 -1
256 809 1
1246 809 -2.318E3
1287 809 -2.318E3
253 810 1
254 810 -1
1225 810 -2.318E3
1266 810 -2.318E3
253 811 1
255 811 -1
1233 811 -2.318E3
1274 811 -2.318E3
253 812 1
256 812 -1
1247 812 -2.318E3
1288 812 -2.318E3
253 813 -1
254 813 1
1225 813 -2.318E3
1266 813 -2.318E3
253 814 -1
255 814 1
1233 814 -2.318E3
1274 814 -2.318E3
253 815 -1
256 815 1
1247 815 -2.318E3
1288 815 -2.318E3
254 816 1
255 816 -1
1234 816 -2.318E3
1275 816 -2.318E3
254 817 1
256 817 -1
1248 817 -2.318E3
1289 817 -2.318E3
254 818 -1
255 818 1
1234 818 -2.318E3
1275 818 -2.318E3
254 819 -1
256 819 1
1248 819 -2.318E3
1289 819 -2.318E3
255 820 1
256 820 -1
1250 820 -2.318E3
1291 820 -2.318E3
255 821 -1
256 821 1
1250 821 -2.318E3
1291 821 -2.318E3
257 822 1
1211 822 -2.346E3
1252 822 -2.346E3
258 823 1
1212 823 -2.346E3
1253 823 -2.346E3
259 824 1
1214 824 -2.346E3
1255 824 -2.346E3
260 825 1
1217 825 -2.346E3
1258 825 -2.346E3
261 826 1
1221 826 -2.346E3
1262 826 -2.346E3
262 827 1
1226 827 -2.346E3
1267 827 -2.346E3
263 828 1
1232 828 -2.346E3
1273 828 -2.346E3
264 829 1
1236 829 -2.346E3
1277 829 -2.346E3
265 830 1
1243 830 -2.346E3
1284 830 -2.346E3
266 831 1
1244 831 -2.346E3
1285 831 -2.346E3
267 832 1
1245 832 -2.346E3
1286 832 -2.346E3
268 833 1
1246 833 -2.346E3
1287 833 -2.346E3
269 834 1
1247 834 -2.346E3
1288 834 -2.346E3
270 835 1
1248 835 -2.346E3
1289 835 -2.346E3
271 836 1
1249 836 -2.346E3
1290 836 -2.346E3
272 837 1
1250 837 -2.346E3
1291 837 -2.346E3
273 838 1
1251 838 -2.346E3
1292 838 -2.346E3
274 839 1
276 839 1
1211 839 -2.346E3
1252 839 -2.346E3
274 840 1
277 840 1
1212 840 -2.346E3
1253 840 -2.346E3
274 841 1
278 841 1
1214 841 -2.346E3
1255 841 -2.346E3
274 842 1
279 842 1
1217 842 -2.346E3
1258 842 -2.346E3
274 843 1
280 843 1
1221 843 -2.346E3
1262 843 -2.346E3
274 844 1
281 844 1
1226 844 -2.346E3
1267 844 -2.346E3
274 845 1
282 845 1
1232 845 -2.346E3
1273 845 -2.346E3
274 846 1
283 846 1
1236 846 -2.346E3
1277 846 -2.346E3
274 847 1
275 847 1
1243 847 -2.346E3
1284 847 -2.346E3
275 848 1
276 848 -1
1244 848 -2.346E3
1285 848 -2.346E3
275 849 1
277 849 -1
1245 849 -2.346E3
1286 849 -2.346E3
275 850 1
278 850 -1
1246 850 -2.346E3
1287 850 -2.346E3
275 851 1
279 851 -1
1247 851 -2.346E3
1288 851 -2.346E3
275 852 1
280 852 -1
1248 852 -2.346E3
1289 852 -2.346E3
275 853 1
281 853 -1
1249 853 -2.346E3
1290 853 -2.346E3
275 854 1
282 854 -1
1250 854 -2.346E3
1291 854 -2.346E3
275 855 1
283 855 -1
1251 855 -2.346E3
1292 855 -2.346E3
276 856 1
277 856 -1
1213 856 -2.346E3
1254 856 -2.346E3
276 857 1
278 857 -1
1215 857 -2.346E3
1256 857 -2.346E3
276 858 1
279 858 -1
1218 858 -2.346E3
1259 858 -2.346E3
276 859 1
280 859 -1
1222 859 -2.346E3
1263 859 -2.346E3
276 860 1
281 860 -1
1227 860 -2.346E3
1268 860 -2.346E3
276 861 -1
277 861 1
1213 861 -2.346E3
1254 861 -2.346E3
276 862 -1
278 862 1
1215 862 -2.346E3
1256 862 -2.346E3
276 863 -1
279 863 1
1218 863 -2.346E3
1259 863 -2.346E3
276 864 -1
280 864 1
1222 864 -2.346E3
1263 864 -2.346E3
276 865 -1
281 865 1
1227 865 -2.346E3
1268 865 -2.346E3
277 866 1
278 866 -1
1216 866 -2.346E3
1257 866 -2.346E3
277 867 1
279 867 -1
1219 867 -2.346E3
1260 867 -2.346E3
277 868 1
280 868 -1
1223 868 -2.346E3
1264 868 -2.346E3
277 869 1
281 869 -1
1228 869 -2.346E3
1269 869 -2.346E3
277 870 1
283 870 -1
1237 870 -2.346E3
1278 870 -2.346E3
277 871 -1
278 871 1
1216 871 -2.346E3
1257 871 -2.346E3
277 872 -1
279 872 1
1219 872 -2.346E3
1260 872 -2.346E3
277 873 -1
280 873 1
1223 873 -2.346E3
1264 873 -2.346E3
277 874 -1
281 874 1
1228 874 -2.346E3
1269 874 -2.346E3
277 875 -1
283 875 1
1237 875 -2.346E3
1278 875 -2.346E3
278 876 1
279 876 -1
1220 876 -2.346E3
1261 876 -2.346E3
278 877 1
280 877 -1
1224 877 -2.346E3
1265 877 -2.346E3
278 878 1
281 878 -1
1229 878 -2.346E3
1270 878 -2.346E3
278 879 1
283 879 -1
1238 879 -2.346E3
1279 879 -2.346E3
278 880 -1
279 880 1
1220 880 -2.346E3
1261 880 -2.346E3
278 881 -1
280 881 1
1224 881 -2.346E3
1265 881 -2.346E3
278 882 -1
281 882 1
1229 882 -2.346E3
1270 882 -2.346E3
278 883 -1
283 883 1
1238 883 -2.346E3
1279 883 -2.346E3
279 884 1
280 884 -1
1225 884 -2.346E3
1266 884 -2.346E3
279 885 1
281 885 -1
1230 885 -2.346E3
1271 885 -2.346E3
279 886 1
282 886 -1
1233 886 -2.346E3
1274 886 -2.346E3
279 887 1
283 887 -1
1239 887 -2.346E3
1280 887 -2.346E3
279 888 -1
280 888 1
1225 888 -2.346E3
1266 888 -2.346E3
279 889 -1
281 889 1
1230 889 -2.346E3
1271 889 -2.346E3
279 890 -1
282 890 1
1233 890 -2.346E3
1274 890 -2.346E3
279 891 -1
283 891 1
1239 891 -2.346E3
1280 891 -2.346E3
280 892 1
281 892 -1
1231 892 -2.346E3
1272 892 -2.346E3
280 893 1
282 893 -1
1234 893 -2.346E3
1275 893 -2.346E3
280 894 1
283 894 -1
1240 894 -2.346E3
1281 894 -2.346E3
280 895 -1
281 895 1
1231 895 -2.346E3
1272 895 -2.346E3
280 896 -1
282 896 1
1234 896 -2.346E3
1275 896 -2.346E3
280 897 -1
283 897 1
1240 897 -2.346E3
1281 897 -2.346E3
281 898 1
282 898 -1
1235 898 -2.346E3
1276 898 -2.346E3
281 899 1
283 899 -1
1241 899 -2.346E3
1282 899 -2.346E3
281 900 -1
282 900 1
1235 900 -2.346E3
1276 900 -2.346E3
281 901 -1
283 901 1
1241 901 -2.346E3
1282 901 -2.346E3
282 902 1
283 902 -1
1242 902 -2.346E3
1283 902 -2.346E3
282 903 -1
283 903 1
1242 903 -2.346E3
1283 903 -2.346E3
284 904 1
1232 904 -9.579E3
1273 904 -9.579E3
285 905 1
1233 905 -9.579E3
1274 905 -9.579E3
286 906 1
1234 906 -9.579E3
1275 906 -9.579E3
287 907 1
1235 907 -9.579E3
1276 907 -9.579E3
288 908 1
1241 908 -9.579E3
1282 908 -9.579E3
289 909 1
1249 909 -9.579E3
1290 909 -9.579E3
290 910 1
1226 910 -9.579E3
1267 910 -9.579E3
291 911 1
1227 911 -9.579E3
1268 911 -9.579E3
292 912 1
1228 912 -9.579E3
1269 912 -9.579E3
293 913 1
1229 913 -9.579E3
1270 913 -9.579E3
294 914 1
1230 914 -9.579E3
1271 914 -9.579E3
295 915 1
1231 915 -9.579E3
1272 915 -9.579E3
296 916 1
1242 916 -9.579E3
1283 916 -9.579E3
297 917 1
1250 917 -9.579E3
1291 917 -9.579E3
298 918 1
306 918 1
1242 918 -9.579E3
1283 918 -9.579E3
298 919 1
307 919 1
1250 919 -9.579E3
1291 919 -9.579E3
298 920 1
300 920 1
1232 920 -9.579E3
1273 920 -9.579E3
298 921 1
304 921 1
1233 921 -9.579E3
1274 921 -9.579E3
298 922 1
305 922 1
1234 922 -9.579E3
1275 922 -9.579E3
298 923 1
299 923 1
1235 923 -9.579E3
1276 923 -9.579E3
299 924 1
300 924 -1
1226 924 -9.579E3
1267 924 -9.579E3
299 925 1
301 925 -1
1227 925 -9.579E3
1268 925 -9.579E3
299 926 1
302 926 -1
1228 926 -9.579E3
1269 926 -9.579E3
299 927 1
303 927 -1
1229 927 -9.579E3
1270 927 -9.579E3
299 928 1
304 928 -1
1230 928 -9.579E3
1271 928 -9.579E3
299 929 1
305 929 -1
1231 929 -9.579E3
1272 929 -9.579E3
299 930 1
306 930 -1
1241 930 -9.579E3
1282 930 -9.579E3
299 931 1
307 931 -1
1249 931 -9.579E3
1290 931 -9.579E3
300 932 1
301 932 -1
1211 932 -9.579E3
1252 932 -9.579E3
300 933 1
302 933 -1
1212 933 -9.579E3
1253 933 -9.579E3
300 934 1
303 934 -1
1214 934 -9.579E3
1255 934 -9.579E3
300 935 1
304 935 -1
1217 935 -9.579E3
1258 935 -9.579E3
300 936 1
305 936 -1
1221 936 -9.579E3
1262 936 -9.579E3
300 937 1
306 937 -1
1236 937 -9.579E3
1277 937 -9.579E3
300 938 1
307 938 -1
1243 938 -9.579E3
1284 938 -9.579E3
300 939 -1
301 939 1
1211 939 -9.579E3
1252 939 -9.579E3
300 940 -1
302 940 1
1212 940 -9.579E3
1253 940 -9.579E3
300 941 -1
303 941 1
1214 941 -9.579E3
1255 941 -9.579E3
300 942 -1
304 942 1
1217 942 -9.579E3
1258 942 -9.579E3
300 943 -1
305 943 1
1221 943 -9.579E3
1262 943 -9.579E3
300 944 -1
306 944 1
1236 944 -9.579E3
1277 944 -9.579E3
300 945 -1
307 945 1
1243 945 -9.579E3
1284 945 -9.579E3
301 946 1
302 946 -1
1213 946 -9.579E3
1254 946 -9.579E3
301 947 1
303 947 -1
1215 947 -9.579E3
1256 947 -9.579E3
301 948 1
304 948 -1
1218 948 -9.579E3
1259 948 -9.579E3
301 949 1
305 949 -1
1222 949 -9.579E3
1263 949 -9.579E3
301 950 1
307 950 -1
1244 950 -9.579E3
1285 950 -9.579E3
301 951 -1
302 951 1
1213 951 -9.579E3
1254 951 -9.579E3
301 952 -1
303 952 1
1215 952 -9.579E3
1256 952 -9.579E3
301 953 -1
304 953 1
1218 953 -9.579E3
1259 953 -9.579E3
301 954 -1
305 954 1
1222 954 -9.579E3
1263 954 -9.579E3
301 955 -1
307 955 1
1244 955 -9.579E3
1285 955 -9.579E3
302 956 1
303 956 -1
1216 956 -9.579E3
1257 956 -9.579E3
302 957 1
304 957 -1
1219 957 -9.579E3
1260 957 -9.579E3
302 958 1
305 958 -1
1223 958 -9.579E3
1264 958 -9.579E3
302 959 1
306 959 -1
1237 959 -9.579E3
1278 959 -9.579E3
302 960 1
307 960 -1
1245 960 -9.579E3
1286 960 -9.579E3
302 961 -1
303 961 1
1216 961 -9.579E3
1257 961 -9.579E3
302 962 -1
304 962 1
1219 962 -9.579E3
1260 962 -9.579E3
302 963 -1
305 963 1
1223 963 -9.579E3
1264 963 -9.579E3
302 964 -1
306 964 1
1237 964 -9.579E3
1278 964 -9.579E3
302 965 -1
307 965 1
1245 965 -9.579E3
1286 965 -9.579E3
303 966 1
304 966 -1
1220 966 -9.579E3
1261 966 -9.579E3
303 967 1
305 967 -1
1224 967 -9.579E3
1265 967 -9.579E3
303 968 1
306 968 -1
1238 968 -9.579E3
1279 968 -9.579E3
303 969 1
307 969 -1
1246 969 -9.579E3
1287 969 -9.579E3
303 970 -1
304 970 1
1220 970 -9.579E3
1261 970 -9.579E3
303 971 -1
305 971 1
1224 971 -9.579E3
1265 971 -9.579E3
303 972 -1
306 972 1
1238 972 -9.579E3
1279 972 -9.579E3
303 973 -1
307 973 1
1246 973 -9.579E3
1287 973 -9.579E3
304 974 1
305 974 -1
1225 974 -9.579E3
1266 974 -9.579E3
304 975 1
306 975 -1
1239 975 -9.579E3
1280 975 -9.579E3
304 976 1
307 976 -1
1247 976 -9.579E3
1288 976 -9.579E3
304 977 -1
305 977 1
1225 977 -9.579E3
1266 977 -9.579E3
304 978 -1
306 978 1
1239 978 -9.579E3
1280 978 -9.579E3
304 979 -1
307 979 1
1247 979 -9.579E3
1288 979 -9.579E3
305 980 1
306 980 -1
1240 980 -9.579E3
1281 980 -9.579E3
305 981 1
307 981 -1
1248 981 -9.579E3
1289 981 -9.579E3
305 982 -1
306 982 1
1240 982 -9.579E3
1281 982 -9.579E3
305 983 -1
307 983 1
1248 983 -9.579E3
1289 983 -9.579E3
306 984 1
307 984 -1
1251 984 -9.579E3
1292 984 -9.579E3
306 985 -1
307 985 1
1251 985 -9.579E3
1292 985 -9.579E3
308 986 1
1211 986 -1.865E3
1252 986 -1.865E3
309 987 1
1216 987 -1.865E3
1257 987 -1.865E3
310 988 1
1219 988 -1.865E3
1260 988 -1.865E3
311 989 1
1223 989 -1.865E3
1264 989 -1.865E3
312 990 1
1228 990 -1.865E3
1269 990 -1.865E3
313 991 1
1237 991 -1.865E3
1278 991 -1.865E3
314 992 1
1245 992 -1.865E3
1286 992 -1.865E3
315 993 1
1212 993 -1.865E3
1253 993 -1.865E3
316 994 1
1213 994 -1.865E3
1254 994 -1.865E3
317 995 1
1215 995 -1.865E3
1256 995 -1.865E3
318 996 1
1218 996 -1.865E3
1259 996 -1.865E3
319 997 1
1222 997 -1.865E3
1263 997 -1.865E3
320 998 1
1227 998 -1.865E3
1268 998 -1.865E3
321 999 1
1244 999 -1.865E3
1285 999 -1.865E3
322 1000 1
323 1000 1
1213 1000 -1.865E3
1254 1000 -1.865E3
322 1001 1
325 1001 1
1215 1001 -1.865E3
1256 1001 -1.865E3
322 1002 1
326 1002 1
1218 1002 -1.865E3
1259 1002 -1.865E3
322 1003 1
327 1003 1
1222 1003 -1.865E3
1263 1003 -1.865E3
322 1004 1
328 1004 1
1227 1004 -1.865E3
1268 1004 -1.865E3
322 1005 1
331 1005 1
1244 1005 -1.865E3
1285 1005 -1.865E3
322 1006 1
324 1006 1
1211 1006 -1.865E3
1252 1006 -1.865E3
323 1007 1
324 1007 -1
1212 1007 -1.865E3
1253 1007 -1.865E3
323 1008 1
325 1008 -1
1216 1008 -1.865E3
1257 1008 -1.865E3
323 1009 1
326 1009 -1
1219 1009 -1.865E3
1260 1009 -1.865E3
323 1010 1
327 1010 -1
1223 1010 -1.865E3
1264 1010 -1.865E3
323 1011 1
328 1011 -1
1228 1011 -1.865E3
1269 1011 -1.865E3
323 1012 1
330 1012 -1
1237 1012 -1.865E3
1278 1012 -1.865E3
323 1013 1
331 1013 -1
1245 1013 -1.865E3
1286 1013 -1.865E3
324 1014 1
325 1014 -1
1214 1014 -1.865E3
1255 1014 -1.865E3
324 1015 1
326 1015 -1
1217 1015 -1.865E3
1258 1015 -1.865E3
324 1016 1
327 1016 -1
1221 1016 -1.865E3
1262 1016 -1.865E3
324 1017 1
328 1017 -1
1226 1017 -1.865E3
1267 1017 -1.865E3
324 1018 1
329 1018 -1
1232 1018 -1.865E3
1273 1018 -1.865E3
324 1019 1
330 1019 -1
1236 1019 -1.865E3
1277 1019 -1.865E3
324 1020 1
331 1020 -1
1243 1020 -1.865E3
1284 1020 -1.865E3
324 1021 -1
325 1021 1
1214 1021 -1.865E3
1255 1021 -1.865E3
324 1022 -1
326 1022 1
1217 1022 -1.865E3
1258 1022 -1.865E3
324 1023 -1
327 1023 1
1221 1023 -1.865E3
1262 1023 -1.865E3
324 1024 -1
328 1024 1
1226 1024 -1.865E3
1267 1024 -1.865E3
324 1025 -1
329 1025 1
1232 1025 -1.865E3
1273 1025 -1.865E3
324 1026 -1
330 1026 1
1236 1026 -1.865E3
1277 1026 -1.865E3
324 1027 -1
331 1027 1
1243 1027 -1.865E3
1284 1027 -1.865E3
325 1028 1
326 1028 -1
1220 1028 -1.865E3
1261 1028 -1.865E3
325 1029 1
327 1029 -1
1224 1029 -1.865E3
1265 1029 -1.865E3
325 1030 1
328 1030 -1
1229 1030 -1.865E3
1270 1030 -1.865E3
325 1031 1
330 1031 -1
1238 1031 -1.865E3
1279 1031 -1.865E3
325 1032 1
331 1032 -1
1246 1032 -1.865E3
1287 1032 -1.865E3
325 1033 -1
326 1033 1
1220 1033 -1.865E3
1261 1033 -1.865E3
325 1034 -1
327 1034 1
1224 1034 -1.865E3
1265 1034 -1.865E3
325 1035 -1
328 1035 1
1229 1035 -1.865E3
1270 1035 -1.865E3
325 1036 -1
330 1036 1
1238 1036 -1.865E3
1279 1036 -1.865E3
325 1037 -1
331 1037 1
1246 1037 -1.865E3
1287 1037 -1.865E3
326 1038 1
327 1038 -1
1225 1038 -1.865E3
1266 1038 -1.865E3
326 1039 1
328 1039 -1
1230 1039 -1.865E3
1271 1039 -1.865E3
326 1040 1
329 1040 -1
1233 1040 -1.865E3
1274 1040 -1.865E3
326 1041 1
330 1041 -1
1239 1041 -1.865E3
1280 1041 -1.865E3
326 1042 1
331 1042 -1
1247 1042 -1.865E3
1288 1042 -1.865E3
326 1043 -1
327 1043 1
1225 1043 -1.865E3
1266 1043 -1.865E3
326 1044 -1
328 1044 1
1230 1044 -1.865E3
1271 1044 -1.865E3
326 1045 -1
329 1045 1
1233 1045 -1.865E3
1274 1045 -1.865E3
326 1046 -1
330 1046 1
1239 1046 -1.865E3
1280 1046 -1.865E3
326 1047 -1
331 1047 1
1247 1047 -1.865E3
1288 1047 -1.865E3
327 1048 1
328 1048 -1
1231 1048 -1.865E3
1272 1048 -1.865E3
327 1049 1
329 1049 -1
1234 1049 -1.865E3
1275 1049 -1.865E3
327 1050 1
330 1050 -1
1240 1050 -1.865E3
1281 1050 -1.865E3
327 1051 1
331 1051 -1
1248 1051 -1.865E3
1289 1051 -1.865E3
327 1052 -1
328 1052 1
1231 1052 -1.865E3
1272 1052 -1.865E3
327 1053 -1
329 1053 1
1234 1053 -1.865E3
1275 1053 -1.865E3
327 1054 -1
330 1054 1
1240 1054 -1.865E3
1281 1054 -1.865E3
327 1055 -1
331 1055 1
1248 1055 -1.865E3
1289 1055 -1.865E3
328 1056 1
329 1056 -1
1235 1056 -1.865E3
1276 1056 -1.865E3
328 1057 1
330 1057 -1
1241 1057 -1.865E3
1282 1057 -1.865E3
328 1058 1
331 1058 -1
1249 1058 -1.865E3
1290 1058 -1.865E3
328 1059 -1
329 1059 1
1235 1059 -1.865E3
1276 1059 -1.865E3
328 1060 -1
330 1060 1
1241 1060 -1.865E3
1282 1060 -1.865E3
328 1061 -1
331 1061 1
1249 1061 -1.865E3
1290 1061 -1.865E3
329 1062 1
330 1062 -1
1242 1062 -1.865E3
1283 1062 -1.865E3
329 1063 1
331 1063 -1
1250 1063 -1.865E3
1291 1063 -1.865E3
329 1064 -1
330 1064 1
1242 1064 -1.865E3
1283 1064 -1.865E3
329 1065 -1
331 1065 1
1250 1065 -1.865E3
1291 1065 -1.865E3
330 1066 1
331 1066 -1
1251 1066 -1.865E3
1292 1066 -1.865E3
330 1067 -1
331 1067 1
1251 1067 -1.865E3
1292 1067 -1.865E3
332 1068 1
1231 1068 -4.056E3
1272 1068 -4.056E3
333 1069 1
1234 1069 -4.056E3
1275 1069 -4.056E3
334 1070 1
1240 1070 -4.056E3
1281 1070 -4.056E3
335 1071 1
1243 1071 -4.056E3
1284 1071 -4.056E3
336 1072 1
1244 1072 -4.056E3
1285 1072 -4.056E3
337 1073 1
1245 1073 -4.056E3
1286 1073 -4.056E3
338 1074 1
1246 1074 -4.056E3
1287 1074 -4.056E3
339 1075 1
1247 1075 -4.056E3
1288 1075 -4.056E3
340 1076 1
1248 1076 -4.056E3
1289 1076 -4.056E3
341 1077 1
1249 1077 -4.056E3
1290 1077 -4.056E3
342 1078 1
1250 1078 -4.056E3
1291 1078 -4.056E3
343 1079 1
1251 1079 -4.056E3
1292 1079 -4.056E3
344 1080 1
1221 1080 -4.056E3
1262 1080 -4.056E3
345 1081 1
1222 1081 -4.056E3
1263 1081 -4.056E3
346 1082 1
1223 1082 -4.056E3
1264 1082 -4.056E3
347 1083 1
1224 1083 -4.056E3
1265 1083 -4.056E3
348 1084 1
1225 1084 -4.056E3
1266 1084 -4.056E3
349 1085 1
351 1085 1
1243 1085 -4.056E3
1284 1085 -4.056E3
349 1086 1
352 1086 1
1244 1086 -4.056E3
1285 1086 -4.056E3
349 1087 1
353 1087 1
1245 1087 -4.056E3
1286 1087 -4.056E3
349 1088 1
354 1088 1
1246 1088 -4.056E3
1287 1088 -4.056E3
349 1089 1
355 1089 1
1247 1089 -4.056E3
1288 1089 -4.056E3
349 1090 1
350 1090 1
1248 1090 -4.056E3
1289 1090 -4.056E3
349 1091 1
356 1091 1
1249 1091 -4.056E3
1290 1091 -4.056E3
349 1092 1
357 1092 1
1250 1092 -4.056E3
1291 1092 -4.056E3
349 1093 1
358 1093 1
1251 1093 -4.056E3
1292 1093 -4.056E3
350 1094 1
351 1094 -1
1221 1094 -4.056E3
1262 1094 -4.056E3
350 1095 1
352 1095 -1
1222 1095 -4.056E3
1263 1095 -4.056E3
350 1096 1
353 1096 -1
1223 1096 -4.056E3
1264 1096 -4.056E3
350 1097 1
354 1097 -1
1224 1097 -4.056E3
1265 1097 -4.056E3
350 1098 1
355 1098 -1
1225 1098 -4.056E3
1266 1098 -4.056E3
350 1099 1
356 1099 -1
1231 1099 -4.056E3
1272 1099 -4.056E3
350 1100 1
357 1100 -1
1234 1100 -4.056E3
1275 1100 -4.056E3
350 1101 1
358 1101 -1
1240 1101 -4.056E3
1281 1101 -4.056E3
351 1102 1
352 1102 -1
1211 1102 -4.056E3
1252 1102 -4.056E3
351 1103 1
353 1103 -1
1212 1103 -4.056E3
1253 1103 -4.056E3
351 1104 1
354 1104 -1
1214 1104 -4.056E3
1255 1104 -4.056E3
351 1105 1
355 1105 -1
1217 1105 -4.056E3
1258 1105 -4.056E3
351 1106 1
356 1106 -1
1226 1106 -4.056E3
1267 1106 -4.056E3
351 1107 1
357 1107 -1
1232 1107 -4.056E3
1273 1107 -4.056E3
351 1108 1
358 1108 -1
1236 1108 -4.056E3
1277 1108 -4.056E3
351 1109 -1
352 1109 1
1211 1109 -4.056E3
1252 1109 -4.056E3
351 1110 -1
353 1110 1
1212 1110 -4.056E3
1253 1110 -4.056E3
351 1111 -1
354 1111 1
1214 1111 -4.056E3
1255 1111 -4.056E3
351 1112 -1
355 1112 1
1217 1112 -4.056E3
1258 1112 -4.056E3
351 1113 -1
356 1113 1
1226 1113 -4.056E3
1267 1113 -4.056E3
351 1114 -1
357 1114 1
1232 1114 -4.056E3
1273 1114 -4.056E3
351 1115 -1
358 1115 1
1236 1115 -4.056E3
1277 1115 -4.056E3
352 1116 1
353 1116 -1
1213 1116 -4.056E3
1254 1116 -4.056E3
352 1117 1
354 1117 -1
1215 1117 -4.056E3
1256 1117 -4.056E3
352 1118 1
355 1118 -1
1218 1118 -4.056E3
1259 1118 -4.056E3
352 1119 1
356 1119 -1
1227 1119 -4.056E3
1268 1119 -4.056E3
352 1120 -1
353 1120 1
1213 1120 -4.056E3
1254 1120 -4.056E3
352 1121 -1
354 1121 1
1215 1121 -4.056E3
1256 1121 -4.056E3
352 1122 -1
355 1122 1
1218 1122 -4.056E3
1259 1122 -4.056E3
352 1123 -1
356 1123 1
1227 1123 -4.056E3
1268 1123 -4.056E3
353 1124 1
354 1124 -1
1216 1124 -4.056E3
1257 1124 -4.056E3
353 1125 1
355 1125 -1
1219 1125 -4.056E3
1260 1125 -4.056E3
353 1126 1
356 1126 -1
1228 1126 -4.056E3
1269 1126 -4.056E3
353 1127 1
358 1127 -1
1237 1127 -4.056E3
1278 1127 -4.056E3
353 1128 -1
354 1128 1
1216 1128 -4.056E3
1257 1128 -4.056E3
353 1129 -1
355 1129 1
1219 1129 -4.056E3
1260 1129 -4.056E3
353 1130 -1
356 1130 1
1228 1130 -4.056E3
1269 1130 -4.056E3
353 1131 -1
358 1131 1
1237 1131 -4.056E3
1278 1131 -4.056E3
354 1132 1
355 1132 -1
1220 1132 -4.056E3
1261 1132 -4.056E3
354 1133 1
356 1133 -1
1229 1133 -4.056E3
1270 1133 -4.056E3
354 1134 1
358 1134 -1
1238 1134 -4.056E3
1279 1134 -4.056E3
354 1135 -1
355 1135 1
1220 1135 -4.056E3
1261 1135 -4.056E3
354 1136 -1
356 1136 1
1229 1136 -4.056E3
1270 1136 -4.056E3
354 1137 -1
358 1137 1
1238 1137 -4.056E3
1279 1137 -4.056E3
355 1138 1
356 1138 -1
1230 1138 -4.056E3
1271 1138 -4.056E3
355 1139 1
357 1139 -1
1233 1139 -4.056E3
1274 1139 -4.056E3
355 1140 1
358 1140 -1
1239 1140 -4.056E3
1280 1140 -4.056E3
355 1141 -1
356 1141 1
1230 1141 -4.056E3
1271 1141 -4.056E3
355 1142 -1
357 1142 1
1233 1142 -4.056E3
1274 1142 -4.056E3
355 1143 -1
358 1143 1
1239 1143 -4.056E3
1280 1143 -4.056E3
356 1144 1
357 1144 -1
1235 1144 -4.056E3
1276 1144 -4.056E3
356 1145 1
358 1145 -1
1241 1145 -4.056E3
1282 1145 -4.056E3
356 1146 -1
357 1146 1
1235 1146 -4.056E3
1276 1146 -4.056E3
356 1147 -1
358 1147 1
1241 1147 -4.056E3
1282 1147 -4.056E3
357 1148 1
358 1148 -1
1242 1148 -4.056E3
1283 1148 -4.056E3
357 1149 -1
358 1149 1
1242 1149 -4.056E3
1283 1149 -4.056E3
359 1150 1
1211 1150 -1.346E3
1252 1150 -1.346E3
360 1151 1
1220 1151 -1.346E3
1261 1151 -1.346E3
361 1152 1
1224 1152 -1.346E3
1265 1152 -1.346E3
362 1153 1
1229 1153 -1.346E3
1270 1153 -1.346E3
363 1154 1
1238 1154 -1.346E3
1279 1154 -1.346E3
364 1155 1
1246 1155 -1.346E3
1287 1155 -1.346E3
365 1156 1
1213 1156 -1.346E3
1254 1156 -1.346E3
366 1157 1
1214 1157 -1.346E3
1255 1157 -1.346E3
367 1158 1
1215 1158 -1.346E3
1256 1158 -1.346E3
368 1159 1
1216 1159 -1.346E3
1257 1159 -1.346E3
369 1160 1
1218 1160 -1.346E3
1259 1160 -1.346E3
370 1161 1
1222 1161 -1.346E3
1263 1161 -1.346E3
371 1162 1
1227 1162 -1.346E3
1268 1162 -1.346E3
372 1163 1
1244 1163 -1.346E3
1285 1163 -1.346E3
373 1164 1
376 1164 1
1213 1164 -1.346E3
1254 1164 -1.346E3
373 1165 1
374 1165 1
1215 1165 -1.346E3
1256 1165 -1.346E3
373 1166 1
377 1166 1
1218 1166 -1.346E3
1259 1166 -1.346E3
373 1167 1
378 1167 1
1222 1167 -1.346E3
1263 1167 -1.346E3
373 1168 1
379 1168 1
1227 1168 -1.346E3
1268 1168 -1.346E3
373 1169 1
382 1169 1
1244 1169 -1.346E3
1285 1169 -1.346E3
373 1170 1
375 1170 1
1211 1170 -1.346E3
1252 1170 -1.346E3
374 1171 1
375 1171 -1
1214 1171 -1.346E3
1255 1171 -1.346E3
374 1172 1
376 1172 -1
1216 1172 -1.346E3
1257 1172 -1.346E3
374 1173 1
377 1173 -1
1220 1173 -1.346E3
1261 1173 -1.346E3
374 1174 1
378 1174 -1
1224 1174 -1.346E3
1265 1174 -1.346E3
374 1175 1
379 1175 -1
1229 1175 -1.346E3
1270 1175 -1.346E3
374 1176 1
381 1176 -1
1238 1176 -1.346E3
1279 1176 -1.346E3
374 1177 1
382 1177 -1
1246 1177 -1.346E3
1287 1177 -1.346E3
375 1178 1
376 1178 -1
1212 1178 -1.346E3
1253 1178 -1.346E3
375 1179 1
377 1179 -1
1217 1179 -1.346E3
1258 1179 -1.346E3
375 1180 1
378 1180 -1
1221 1180 -1.346E3
1262 1180 -1.346E3
375 1181 1
379 1181 -1
1226 1181 -1.346E3
1267 1181 -1.346E3
375 1182 1
380 1182 -1
1232 1182 -1.346E3
1273 1182 -1.346E3
375 1183 1
381 1183 -1
1236 1183 -1.346E3
1277 1183 -1.346E3
375 1184 1
382 1184 -1
1243 1184 -1.346E3
1284 1184 -1.346E3
375 1185 -1
376 1185 1
1212 1185 -1.346E3
1253 1185 -1.346E3
375 1186 -1
377 1186 1
1217 1186 -1.346E3
1258 1186 -1.346E3
375 1187 -1
378 1187 1
1221 1187 -1.346E3
1262 1187 -1.346E3
375 1188 -1
379 1188 1
1226 1188 -1.346E3
1267 1188 -1.346E3
375 1189 -1
380 1189 1
1232 1189 -1.346E3
1273 1189 -1.346E3
375 1190 -1
381 1190 1
1236 1190 -1.346E3
1277 1190 -1.346E3
375 1191 -1
382 1191 1
1243 1191 -1.346E3
1284 1191 -1.346E3
376 1192 1
377 1192 -1
1219 1192 -1.346E3
1260 1192 -1.346E3
376 1193 1
378 1193 -1
1223 1193 -1.346E3
1264 1193 -1.346E3
376 1194 1
379 1194 -1
1228 1194 -1.346E3
1269 1194 -1.346E3
376 1195 1
381 1195 -1
1237 1195 -1.346E3
1278 1195 -1.346E3
376 1196 1
382 1196 -1
1245 1196 -1.346E3
1286 1196 -1.346E3
376 1197 -1
377 1197 1
1219 1197 -1.346E3
1260 1197 -1.346E3
376 1198 -1
378 1198 1
1223 1198 -1.346E3
1264 1198 -1.346E3
376 1199 -1
379 1199 1
1228 1199 -1.346E3
1269 1199 -1.346E3
376 1200 -1
381 1200 1
1237 1200 -1.346E3
1278 1200 -1.346E3
376 1201 -1
382 1201 1
1245 1201 -1.346E3
1286 1201 -1.346E3
377 1202 1
378 1202 -1
1225 1202 -1.346E3
1266 1202 -1.346E3
377 1203 1
379 1203 -1
1230 1203 -1.346E3
1271 1203 -1.346E3
377 1204 1
380 1204 -1
1233 1204 -1.346E3
1274 1204 -1.346E3
377 1205 1
381 1205 -1
1239 1205 -1.346E3
1280 1205 -1.346E3
377 1206 1
382 1206 -1
1247 1206 -1.346E3
1288 1206 -1.346E3
377 1207 -1
378 1207 1
1225 1207 -1.346E3
1266 1207 -1.346E3
377 1208 -1
379 1208 1
1230 1208 -1.346E3
1271 1208 -1.346E3
377 1209 -1
380 1209 1
1233 1209 -1.346E3
1274 1209 -1.346E3
377 1210 -1
381 1210 1
1239 1210 -1.346E3
1280 1210 -1.346E3
377 1211 -1
382 1211 1
1247 1211 -1.346E3
1288 1211 -1.346E3
378 1212 1
379 1212 -1
1231 1212 -1.346E3
1272 1212 -1.346E3
378 1213 1
380 1213 -1
1234 1213 -1.346E3
1275 1213 -1.346E3
378 1214 1
381 1214 -1
1240 1214 -1.346E3
1281 1214 -1.346E3
378 1215 1
382 1215 -1
1248 1215 -1.346E3
1289 1215 -1.346E3
378 1216 -1
379 1216 1
1231 1216 -1.346E3
1272 1216 -1.346E3
378 1217 -1
380 1217 1
1234 1217 -1.346E3
1275 1217 -1.346E3
378 1218 -1
381 1218 1
1240 1218 -1.346E3
1281 1218 -1.346E3
378 1219 -1
382 1219 1
1248 1219 -1.346E3
1289 1219 -1.346E3
379 1220 1
380 1220 -1
1235 1220 -1.346E3
1276 1220 -1.346E3
379 1221 1
381 1221 -1
1241 1221 -1.346E3
1282 1221 -1.346E3
379 1222 1
382 1222 -1
1249 1222 -1.346E3
1290 1222 -1.346E3
379 1223 -1
380 1223 1
1235 1223 -1.346E3
1276 1223 -1.346E3
379 1224 -1
381 1224 1
1241 1224 -1.346E3
1282 1224 -1.346E3
379 1225 -1
382 1225 1
1249 1225 -1.346E3
1290 1225 -1.346E3
380 1226 1
381 1226 -1
1242 1226 -1.346E3
1283 1226 -1.346E3
380 1227 1
382 1227 -1
1250 1227 -1.346E3
1291 1227 -1.346E3
380 1228 -1
381 1228 1
1242 1228 -1.346E3
1283 1228 -1.346E3
380 1229 -1
382 1229 1
1250 1229 -1.346E3
1291 1229 -1.346E3
381 1230 1
382 1230 -1
1251 1230 -1.346E3
1292 1230 -1.346E3
381 1231 -1
382 1231 1
1251 1231 -1.346E3
1292 1231 -1.346E3
383 1232 1
1231 1232 -5.07E2
1272 1232 -5.07E2
384 1233 1
1232 1233 -5.07E2
1273 1233 -5.07E2
385 1234 1
1233 1234 -5.07E2
1274 1234 -5.07E2
386 1235 1
1234 1235 -5.07E2
1275 1235 -5.07E2
387 1236 1
1235 1236 -5.07E2
1276 1236 -5.07E2
388 1237 1
1240 1237 -5.07E2
1281 1237 -5.07E2
389 1238 1
1248 1238 -5.07E2
1289 1238 -5.07E2
390 1239 1
1221 1239 -5.07E2
1262 1239 -5.07E2
391 1240 1
1222 1240 -5.07E2
1263 1240 -5.07E2
392 1241 1
1223 1241 -5.07E2
1264 1241 -5.07E2
393 1242 1
1224 1242 -5.07E2
1265 1242 -5.07E2
394 1243 1
1225 1243 -5.07E2
1266 1243 -5.07E2
395 1244 1
1242 1244 -5.07E2
1283 1244 -5.07E2
396 1245 1
1250 1245 -5.07E2
1291 1245 -5.07E2
397 1246 1
405 1246 1
1242 1246 -5.07E2
1283 1246 -5.07E2
397 1247 1
406 1247 1
1250 1247 -5.07E2
1291 1247 -5.07E2
397 1248 1
399 1248 1
1232 1248 -5.07E2
1273 1248 -5.07E2
397 1249 1
403 1249 1
1233 1249 -5.07E2
1274 1249 -5.07E2
397 1250 1
398 1250 1
1234 1250 -5.07E2
1275 1250 -5.07E2
397 1251 1
404 1251 1
1235 1251 -5.07E2
1276 1251 -5.07E2
398 1252 1
399 1252 -1
1221 1252 -5.07E2
1262 1252 -5.07E2
398 1253 1
400 1253 -1
1222 1253 -5.07E2
1263 1253 -5.07E2
398 1254 1
401 1254 -1
1223 1254 -5.07E2
1264 1254 -5.07E2
398 1255 1
402 1255 -1
1224 1255 -5.07E2
1265 1255 -5.07E2
398 1256 1
403 1256 -1
1225 1256 -5.07E2
1266 1256 -5.07E2
398 1257 1
404 1257 -1
1231 1257 -5.07E2
1272 1257 -5.07E2
398 1258 1
405 1258 -1
1240 1258 -5.07E2
1281 1258 -5.07E2
398 1259 1
406 1259 -1
1248 1259 -5.07E2
1289 1259 -5.07E2
399 1260 1
400 1260 -1
1211 1260 -5.07E2
1252 1260 -5.07E2
399 1261 1
401 1261 -1
1212 1261 -5.07E2
1253 1261 -5.07E2
399 1262 1
402 1262 -1
1214 1262 -5.07E2
1255 1262 -5.07E2
399 1263 1
403 1263 -1
1217 1263 -5.07E2
1258 1263 -5.07E2
399 1264 1
404 1264 -1
1226 1264 -5.07E2
1267 1264 -5.07E2
399 1265 1
405 1265 -1
1236 1265 -5.07E2
1277 1265 -5.07E2
399 1266 1
406 1266 -1
1243 1266 -5.07E2
1284 1266 -5.07E2
399 1267 -1
400 1267 1
1211 1267 -5.07E2
1252 1267 -5.07E2
399 1268 -1
401 1268 1
1212 1268 -5.07E2
1253 1268 -5.07E2
399 1269 -1
402 1269 1
1214 1269 -5.07E2
1255 1269 -5.07E2
399 1270 -1
403 1270 1
1217 1270 -5.07E2
1258 1270 -5.07E2
399 1271 -1
404 1271 1
1226 1271 -5.07E2
1267 1271 -5.07E2
399 1272 -1
405 1272 1
1236 1272 -5.07E2
1277 1272 -5.07E2
399 1273 -1
406 1273 1
1243 1273 -5.07E2
1284 1273 -5.07E2
400 1274 1
401 1274 -1
1213 1274 -5.07E2
1254 1274 -5.07E2
400 1275 1
402 1275 -1
1215 1275 -5.07E2
1256 1275 -5.07E2
400 1276 1
403 1276 -1
1218 1276 -5.07E2
1259 1276 -5.07E2
400 1277 1
404 1277 -1
1227 1277 -5.07E2
1268 1277 -5.07E2
400 1278 1
406 1278 -1
1244 1278 -5.07E2
1285 1278 -5.07E2
400 1279 -1
401 1279 1
1213 1279 -5.07E2
1254 1279 -5.07E2
400 1280 -1
402 1280 1
1215 1280 -5.07E2
1256 1280 -5.07E2
400 1281 -1
403 1281 1
1218 1281 -5.07E2
1259 1281 -5.07E2
400 1282 -1
404 1282 1
1227 1282 -5.07E2
1268 1282 -5.07E2
400 1283 -1
406 1283 1
1244 1283 -5.07E2
1285 1283 -5.07E2
401 1284 1
402 1284 -1
1216 1284 -5.07E2
1257 1284 -5.07E2
401 1285 1
403 1285 -1
1219 1285 -5.07E2
1260 1285 -5.07E2
401 1286 1
404 1286 -1
1228 1286 -5.07E2
1269 1286 -5.07E2
401 1287 1
405 1287 -1
1237 1287 -5.07E2
1278 1287 -5.07E2
401 1288 1
406 1288 -1
1245 1288 -5.07E2
1286 1288 -5.07E2
401 1289 -1
402 1289 1
1216 1289 -5.07E2
1257 1289 -5.07E2
401 1290 -1
403 1290 1
1219 1290 -5.07E2
1260 1290 -5.07E2
401 1291 -1
404 1291 1
1228 1291 -5.07E2
1269 1291 -5.07E2
401 1292 -1
405 1292 1
1237 1292 -5.07E2
1278 1292 -5.07E2
401 1293 -1
406 1293 1
1245 1293 -5.07E2
1286 1293 -5.07E2
402 1294 1
403 1294 -1
1220 1294 -5.07E2
1261 1294 -5.07E2
402 1295 1
404 1295 -1
1229 1295 -5.07E2
1270 1295 -5.07E2
402 1296 1
405 1296 -1
1238 1296 -5.07E2
1279 1296 -5.07E2
402 1297 1
406 1297 -1
1246 1297 -5.07E2
1287 1297 -5.07E2
402 1298 -1
403 1298 1
1220 1298 -5.07E2
1261 1298 -5.07E2
402 1299 -1
404 1299 1
1229 1299 -5.07E2
1270 1299 -5.07E2
402 1300 -1
405 1300 1
1238 1300 -5.07E2
1279 1300 -5.07E2
402 1301 -1
406 1301 1
1246 1301 -5.07E2
1287 1301 -5.07E2
403 1302 1
404 1302 -1
1230 1302 -5.07E2
1271 1302 -5.07E2
403 1303 1
405 1303 -1
1239 1303 -5.07E2
1280 1303 -5.07E2
403 1304 1
406 1304 -1
1247 1304 -5.07E2
1288 1304 -5.07E2
403 1305 -1
404 1305 1
1230 1305 -5.07E2
1271 1305 -5.07E2
403 1306 -1
405 1306 1
1239 1306 -5.07E2
1280 1306 -5.07E2
403 1307 -1
406 1307 1
1247 1307 -5.07E2
1288 1307 -5.07E2
404 1308 1
405 1308 -1
1241 1308 -5.07E2
1282 1308 -5.07E2
404 1309 1
406 1309 -1
1249 1309 -5.07E2
1290 1309 -5.07E2
404 1310 -1
405 1310 1
1241 1310 -5.07E2
1282 1310 -5.07E2
404 1311 -1
406 1311 1
1249 1311 -5.07E2
1290 1311 -5.07E2
405 1312 1
406 1312 -1
1251 1312 -5.07E2
1292 1312 -5.07E2
405 1313 -1
406 1313 1
1251 1313 -5.07E2
1292 1313 -5.07E2
407 1314 1
1211 1314 -5.62E3
1252 1314 -5.62E3
408 1315 1
1225 1315 -5.62E3
1266 1315 -5.62E3
409 1316 1
1230 1316 -5.62E3
1271 1316 -5.62E3
410 1317 1
1233 1317 -5.62E3
1274 1317 -5.62E3
411 1318 1
1239 1318 -5.62E3
1280 1318 -5.62E3
412 1319 1
1247 1319 -5.62E3
1288 1319 -5.62E3
413 1320 1
1213 1320 -5.62E3
1254 1320 -5.62E3
414 1321 1
1215 1321 -5.62E3
1256 1321 -5.62E3
415 1322 1
1217 1322 -5.62E3
1258 1322 -5.62E3
416 1323 1
1218 1323 -5.62E3
1259 1323 -5.62E3
417 1324 1
1219 1324 -5.62E3
1260 1324 -5.62E3
418 1325 1
1220 1325 -5.62E3
1261 1325 -5.62E3
419 1326 1
1222 1326 -5.62E3
1263 1326 -5.62E3
420 1327 1
1227 1327 -5.62E3
1268 1327 -5.62E3
421 1328 1
1244 1328 -5.62E3
1285 1328 -5.62E3
422 1329 1
425 1329 1
1213 1329 -5.62E3
1254 1329 -5.62E3
422 1330 1
426 1330 1
1215 1330 -5.62E3
1256 1330 -5.62E3
422 1331 1
423 1331 1
1218 1331 -5.62E3
1259 1331 -5.62E3
422 1332 1
427 1332 1
1222 1332 -5.62E3
1263 1332 -5.62E3
422 1333 1
428 1333 1
1227 1333 -5.62E3
1268 1333 -5.62E3
422 1334 1
431 1334 1
1244 1334 -5.62E3
1285 1334 -5.62E3
422 1335 1
424 1335 1
1211 1335 -5.62E3
1252 1335 -5.62E3
423 1336 1
424 1336 -1
1217 1336 -5.62E3
1258 1336 -5.62E3
423 1337 1
425 1337 -1
1219 1337 -5.62E3
1260 1337 -5.62E3
423 1338 1
426 1338 -1
1220 1338 -5.62E3
1261 1338 -5.62E3
423 1339 1
427 1339 -1
1225 1339 -5.62E3
1266 1339 -5.62E3
423 1340 1
428 1340 -1
1230 1340 -5.62E3
1271 1340 -5.62E3
423 1341 1
429 1341 -1
1233 1341 -5.62E3
1274 1341 -5.62E3
423 1342 1
430 1342 -1
1239 1342 -5.62E3
1280 1342 -5.62E3
423 1343 1
431 1343 -1
1247 1343 -5.62E3
1288 1343 -5.62E3
424 1344 1
425 1344 -1
1212 1344 -5.62E3
1253 1344 -5.62E3
424 1345 1
426 1345 -1
1214 1345 -5.62E3
1255 1345 -5.62E3
424 1346 1
427 1346 -1
1221 1346 -5.62E3
1262 1346 -5.62E3
424 1347 1
428 1347 -1
1226 1347 -5.62E3
1267 1347 -5.62E3
424 1348 1
429 1348 -1
1232 1348 -5.62E3
1273 1348 -5.62E3
424 1349 1
430 1349 -1
1236 1349 -5.62E3
1277 1349 -5.62E3
424 1350 1
431 1350 -1
1243 1350 -5.62E3
1284 1350 -5.62E3
424 1351 -1
425 1351 1
1212 1351 -5.62E3
1253 1351 -5.62E3
424 1352 -1
426 1352 1
1214 1352 -5.62E3
1255 1352 -5.62E3
424 1353 -1
427 1353 1
1221 1353 -5.62E3
1262 1353 -5.62E3
424 1354 -1
428 1354 1
1226 1354 -5.62E3
1267 1354 -5.62E3
424 1355 -1
429 1355 1
1232 1355 -5.62E3
1273 1355 -5.62E3
424 1356 -1
430 1356 1
1236 1356 -5.62E3
1277 1356 -5.62E3
424 1357 -1
431 1357 1
1243 1357 -5.62E3
1284 1357 -5.62E3
425 1358 1
426 1358 -1
1216 1358 -5.62E3
1257 1358 -5.62E3
425 1359 1
427 1359 -1
1223 1359 -5.62E3
1264 1359 -5.62E3
425 1360 1
428 1360 -1
1228 1360 -5.62E3
1269 1360 -5.62E3
425 1361 1
430 1361 -1
1237 1361 -5.62E3
1278 1361 -5.62E3
425 1362 1
431 1362 -1
1245 1362 -5.62E3
1286 1362 -5.62E3
425 1363 -1
426 1363 1
1216 1363 -5.62E3
1257 1363 -5.62E3
425 1364 -1
427 1364 1
1223 1364 -5.62E3
1264 1364 -5.62E3
425 1365 -1
428 1365 1
1228 1365 -5.62E3
1269 1365 -5.62E3
425 1366 -1
430 1366 1
1237 1366 -5.62E3
1278 1366 -5.62E3
425 1367 -1
431 1367 1
1245 1367 -5.62E3
1286 1367 -5.62E3
426 1368 1
427 1368 -1
1224 1368 -5.62E3
1265 1368 -5.62E3
426 1369 1
428 1369 -1
1229 1369 -5.62E3
1270 1369 -5.62E3
426 1370 1
430 1370 -1
1238 1370 -5.62E3
1279 1370 -5.62E3
426 1371 1
431 1371 -1
1246 1371 -5.62E3
1287 1371 -5.62E3
426 1372 -1
427 1372 1
1224 1372 -5.62E3
1265 1372 -5.62E3
426 1373 -1
428 1373 1
1229 1373 -5.62E3
1270 1373 -5.62E3
426 1374 -1
430 1374 1
1238 1374 -5.62E3
1279 1374 -5.62E3
426 1375 -1
431 1375 1
1246 1375 -5.62E3
1287 1375 -5.62E3
427 1376 1
428 1376 -1
1231 1376 -5.62E3
1272 1376 -5.62E3
427 1377 1
429 1377 -1
1234 1377 -5.62E3
1275 1377 -5.62E3
427 1378 1
430 1378 -1
1240 1378 -5.62E3
1281 1378 -5.62E3
427 1379 1
431 1379 -1
1248 1379 -5.62E3
1289 1379 -5.62E3
427 1380 -1
428 1380 1
1231 1380 -5.62E3
1272 1380 -5.62E3
427 1381 -1
429 1381 1
1234 1381 -5.62E3
1275 1381 -5.62E3
427 1382 -1
430 1382 1
1240 1382 -5.62E3
1281 1382 -5.62E3
427 1383 -1
431 1383 1
1248 1383 -5.62E3
1289 1383 -5.62E3
428 1384 1
429 1384 -1
1235 1384 -5.62E3
1276 1384 -5.62E3
428 1385 1
430 1385 -1
1241 1385 -5.62E3
1282 1385 -5.62E3
428 1386 1
431 1386 -1
1249 1386 -5.62E3
1290 1386 -5.62E3
428 1387 -1
429 1387 1
1235 1387 -5.62E3
1276 1387 -5.62E3
428 1388 -1
430 1388 1
1241 1388 -5.62E3
1282 1388 -5.62E3
428 1389 -1
431 1389 1
1249 1389 -5.62E3
1290 1389 -5.62E3
429 1390 1
430 1390 -1
1242 1390 -5.62E3
1283 1390 -5.62E3
429 1391 1
431 1391 -1
1250 1391 -5.62E3
1291 1391 -5.62E3
429 1392 -1
430 1392 1
1242 1392 -5.62E3
1283 1392 -5.62E3
429 1393 -1
431 1393 1
1250 1393 -5.62E3
1291 1393 -5.62E3
430 1394 1
431 1394 -1
1251 1394 -5.62E3
1292 1394 -5.62E3
430 1395 -1
431 1395 1
1251 1395 -5.62E3
1292 1395 -5.62E3
432 1396 1
1225 1396 -6.61E2
1266 1396 -6.61E2
433 1397 1
1230 1397 -6.61E2
1271 1397 -6.61E2
434 1398 1
1233 1398 -6.61E2
1274 1398 -6.61E2
435 1399 1
1239 1399 -6.61E2
1280 1399 -6.61E2
436 1400 1
1243 1400 -6.61E2
1284 1400 -6.61E2
437 1401 1
1244 1401 -6.61E2
1285 1401 -6.61E2
438 1402 1
1245 1402 -6.61E2
1286 1402 -6.61E2
439 1403 1
1246 1403 -6.61E2
1287 1403 -6.61E2
440 1404 1
1247 1404 -6.61E2
1288 1404 -6.61E2
441 1405 1
1248 1405 -6.61E2
1289 1405 -6.61E2
442 1406 1
1249 1406 -6.61E2
1290 1406 -6.61E2
443 1407 1
1250 1407 -6.61E2
1291 1407 -6.61E2
444 1408 1
1251 1408 -6.61E2
1292 1408 -6.61E2
445 1409 1
1217 1409 -6.61E2
1258 1409 -6.61E2
446 1410 1
1218 1410 -6.61E2
1259 1410 -6.61E2
447 1411 1
1219 1411 -6.61E2
1260 1411 -6.61E2
448 1412 1
1220 1412 -6.61E2
1261 1412 -6.61E2
449 1413 1
451 1413 1
1243 1413 -6.61E2
1284 1413 -6.61E2
449 1414 1
452 1414 1
1244 1414 -6.61E2
1285 1414 -6.61E2
449 1415 1
453 1415 1
1245 1415 -6.61E2
1286 1415 -6.61E2
449 1416 1
454 1416 1
1246 1416 -6.61E2
1287 1416 -6.61E2
449 1417 1
450 1417 1
1247 1417 -6.61E2
1288 1417 -6.61E2
449 1418 1
455 1418 1
1248 1418 -6.61E2
1289 1418 -6.61E2
449 1419 1
456 1419 1
1249 1419 -6.61E2
1290 1419 -6.61E2
449 1420 1
457 1420 1
1250 1420 -6.61E2
1291 1420 -6.61E2
449 1421 1
458 1421 1
1251 1421 -6.61E2
1292 1421 -6.61E2
450 1422 1
451 1422 -1
1217 1422 -6.61E2
1258 1422 -6.61E2
450 1423 1
452 1423 -1
1218 1423 -6.61E2
1259 1423 -6.61E2
450 1424 1
453 1424 -1
1219 1424 -6.61E2
1260 1424 -6.61E2
450 1425 1
454 1425 -1
1220 1425 -6.61E2
1261 1425 -6.61E2
450 1426 1
455 1426 -1
1225 1426 -6.61E2
1266 1426 -6.61E2
450 1427 1
456 1427 -1
1230 1427 -6.61E2
1271 1427 -6.61E2
450 1428 1
457 1428 -1
1233 1428 -6.61E2
1274 1428 -6.61E2
450 1429 1
458 1429 -1
1239 1429 -6.61E2
1280 1429 -6.61E2
451 1430 1
452 1430 -1
1211 1430 -6.61E2
1252 1430 -6.61E2
451 1431 1
453 1431 -1
1212 1431 -6.61E2
1253 1431 -6.61E2
451 1432 1
454 1432 -1
1214 1432 -6.61E2
1255 1432 -6.61E2
451 1433 1
455 1433 -1
1221 1433 -6.61E2
1262 1433 -6.61E2
451 1434 1
456 1434 -1
1226 1434 -6.61E2
1267 1434 -6.61E2
451 1435 1
457 1435 -1
1232 1435 -6.61E2
1273 1435 -6.61E2
451 1436 1
458 1436 -1
1236 1436 -6.61E2
1277 1436 -6.61E2
451 1437 -1
452 1437 1
1211 1437 -6.61E2
1252 1437 -6.61E2
451 1438 -1
453 1438 1
1212 1438 -6.61E2
1253 1438 -6.61E2
451 1439 -1
454 1439 1
1214 1439 -6.61E2
1255 1439 -6.61E2
451 1440 -1
455 1440 1
1221 1440 -6.61E2
1262 1440 -6.61E2
451 1441 -1
456 1441 1
1226 1441 -6.61E2
1267 1441 -6.61E2
451 1442 -1
457 1442 1
1232 1442 -6.61E2
1273 1442 -6.61E2
451 1443 -1
458 1443 1
1236 1443 -6.61E2
1277 1443 -6.61E2
452 1444 1
453 1444 -1
1213 1444 -6.61E2
1254 1444 -6.61E2
452 1445 1
454 1445 -1
1215 1445 -6.61E2
1256 1445 -6.61E2
452 1446 1
455 1446 -1
1222 1446 -6.61E2
1263 1446 -6.61E2
452 1447 1
456 1447 -1
1227 1447 -6.61E2
1268 1447 -6.61E2
452 1448 -1
453 1448 1
1213 1448 -6.61E2
1254 1448 -6.61E2
452 1449 -1
454 1449 1
1215 1449 -6.61E2
1256 1449 -6.61E2
452 1450 -1
455 1450 1
1222 1450 -6.61E2
1263 1450 -6.61E2
452 1451 -1
456 1451 1
1227 1451 -6.61E2
1268 1451 -6.61E2
453 1452 1
454 1452 -1
1216 1452 -6.61E2
1257 1452 -6.61E2
453 1453 1
455 1453 -1
1223 1453 -6.61E2
1264 1453 -6.61E2
453 1454 1
456 1454 -1
1228 1454 -6.61E2
1269 1454 -6.61E2
453 1455 1
458 1455 -1
1237 1455 -6.61E2
1278 1455 -6.61E2
453 1456 -1
454 1456 1
1216 1456 -6.61E2
1257 1456 -6.61E2
453 1457 -1
455 1457 1
1223 1457 -6.61E2
1264 1457 -6.61E2
453 1458 -1
456 1458 1
1228 1458 -6.61E2
1269 1458 -6.61E2
453 1459 -1
458 1459 1
1237 1459 -6.61E2
1278 1459 -6.61E2
454 1460 1
455 1460 -1
1224 1460 -6.61E2
1265 1460 -6.61E2
454 1461 1
456 1461 -1
1229 1461 -6.61E2
1270 1461 -6.61E2
454 1462 1
458 1462 -1
1238 1462 -6.61E2
1279 1462 -6.61E2
454 1463 -1
455 1463 1
1224 1463 -6.61E2
1265 1463 -6.61E2
454 1464 -1
456 1464 1
1229 1464 -6.61E2
1270 1464 -6.61E2
454 1465 -1
458 1465 1
1238 1465 -6.61E2
1279 1465 -6.61E2
455 1466 1
456 1466 -1
1231 1466 -6.61E2
1272 1466 -6.61E2
455 1467 1
457 1467 -1
1234 1467 -6.61E2
1275 1467 -6.61E2
455 1468 1
458 1468 -1
1240 1468 -6.61E2
1281 1468 -6.61E2
455 1469 -1
456 1469 1
1231 1469 -6.61E2
1272 1469 -6.61E2
455 1470 -1
457 1470 1
1234 1470 -6.61E2
1275 1470 -6.61E2
455 1471 -1
458 1471 1
1240 1471 -6.61E2
1281 1471 -6.61E2
456 1472 1
457 1472 -1
1235 1472 -6.61E2
1276 1472 -6.61E2
456 1473 1
458 1473 -1
1241 1473 -6.61E2
1282 1473 -6.61E2
456 1474 -1
457 1474 1
1235 1474 -6.61E2
1276 1474 -6.61E2
456 1475 -1
458 1475 1
1241 1475 -6.61E2
1282 1475 -6.61E2
457 1476 1
458 1476 -1
1242 1476 -6.61E2
1283 1476 -6.61E2
457 1477 -1
458 1477 1
1242 1477 -6.61E2
1283 1477 -6.61E2
459 1478 1
1211 1478 -3.193E3
1252 1478 -3.193E3
460 1479 1
1231 1479 -3.193E3
1272 1479 -3.193E3
461 1480 1
1234 1480 -3.193E3
1275 1480 -3.193E3
462 1481 1
1240 1481 -3.193E3
1281 1481 -3.193E3
463 1482 1
1248 1482 -3.193E3
1289 1482 -3.193E3
464 1483 1
1213 1483 -3.193E3
1254 1483 -3.193E3
465 1484 1
1215 1484 -3.193E3
1256 1484 -3.193E3
466 1485 1
1218 1485 -3.193E3
1259 1485 -3.193E3
467 1486 1
1221 1486 -3.193E3
1262 1486 -3.193E3
468 1487 1
1222 1487 -3.193E3
1263 1487 -3.193E3
469 1488 1
1223 1488 -3.193E3
1264 1488 -3.193E3
470 1489 1
1224 1489 -3.193E3
1265 1489 -3.193E3
471 1490 1
1225 1490 -3.193E3
1266 1490 -3.193E3
472 1491 1
1227 1491 -3.193E3
1268 1491 -3.193E3
473 1492 1
1244 1492 -3.193E3
1285 1492 -3.193E3
474 1493 1
477 1493 1
1213 1493 -3.193E3
1254 1493 -3.193E3
474 1494 1
478 1494 1
1215 1494 -3.193E3
1256 1494 -3.193E3
474 1495 1
479 1495 1
1218 1495 -3.193E3
1259 1495 -3.193E3
474 1496 1
475 1496 1
1222 1496 -3.193E3
1263 1496 -3.193E3
474 1497 1
480 1497 1
1227 1497 -3.193E3
1268 1497 -3.193E3
474 1498 1
483 1498 1
1244 1498 -3.193E3
1285 1498 -3.193E3
474 1499 1
476 1499 1
1211 1499 -3.193E3
1252 1499 -3.193E3
475 1500 1
476 1500 -1
1221 1500 -3.193E3
1262 1500 -3.193E3
475 1501 1
477 1501 -1
1223 1501 -3.193E3
1264 1501 -3.193E3
475 1502 1
478 1502 -1
1224 1502 -3.193E3
1265 1502 -3.193E3
475 1503 1
479 1503 -1
1225 1503 -3.193E3
1266 1503 -3.193E3
475 1504 1
480 1504 -1
1231 1504 -3.193E3
1272 1504 -3.193E3
475 1505 1
481 1505 -1
1234 1505 -3.193E3
1275 1505 -3.193E3
475 1506 1
482 1506 -1
1240 1506 -3.193E3
1281 1506 -3.193E3
475 1507 1
483 1507 -1
1248 1507 -3.193E3
1289 1507 -3.193E3
476 1508 1
477 1508 -1
1212 1508 -3.193E3
1253 1508 -3.193E3
476 1509 1
478 1509 -1
1214 1509 -3.193E3
1255 1509 -3.193E3
476 1510 1
479 1510 -1
1217 1510 -3.193E3
1258 1510 -3.193E3
476 1511 1
480 1511 -1
1226 1511 -3.193E3
1267 1511 -3.193E3
476 1512 1
481 1512 -1
1232 1512 -3.193E3
1273 1512 -3.193E3
476 1513 1
482 1513 -1
1236 1513 -3.193E3
1277 1513 -3.193E3
476 1514 1
483 1514 -1
1243 1514 -3.193E3
1284 1514 -3.193E3
476 1515 -1
477 1515 1
1212 1515 -3.193E3
1253 1515 -3.193E3
476 1516 -1
478 1516 1
1214 1516 -3.193E3
1255 1516 -3.193E3
476 1517 -1
479 1517 1
1217 1517 -3.193E3
1258 1517 -3.193E3
476 1518 -1
480 1518 1
1226 1518 -3.193E3
1267 1518 -3.193E3
476 1519 -1
481 1519 1
1232 1519 -3.193E3
1273 1519 -3.193E3
476 1520 -1
482 1520 1
1236 1520 -3.193E3
1277 1520 -3.193E3
476 1521 -1
483 1521 1
1243 1521 -3.193E3
1284 1521 -3.193E3
477 1522 1
478 1522 -1
1216 1522 -3.193E3
1257 1522 -3.193E3
477 1523 1
479 1523 -1
1219 1523 -3.193E3
1260 1523 -3.193E3
477 1524 1
480 1524 -1
1228 1524 -3.193E3
1269 1524 -3.193E3
477 1525 1
482 1525 -1
1237 1525 -3.193E3
1278 1525 -3.193E3
477 1526 1
483 1526 -1
1245 1526 -3.193E3
1286 1526 -3.193E3
477 1527 -1
478 1527 1
1216 1527 -3.193E3
1257 1527 -3.193E3
477 1528 -1
479 1528 1
1219 1528 -3.193E3
1260 1528 -3.193E3
477 1529 -1
480 1529 1
1228 1529 -3.193E3
1269 1529 -3.193E3
477 1530 -1
482 1530 1
1237 1530 -3.193E3
1278 1530 -3.193E3
477 1531 -1
483 1531 1
1245 1531 -3.193E3
1286 1531 -3.193E3
478 1532 1
479 1532 -1
1220 1532 -3.193E3
1261 1532 -3.193E3
478 1533 1
480 1533 -1
1229 1533 -3.193E3
1270 1533 -3.193E3
478 1534 1
482 1534 -1
1238 1534 -3.193E3
1279 1534 -3.193E3
478 1535 1
483 1535 -1
1246 1535 -3.193E3
1287 1535 -3.193E3
478 1536 -1
479 1536 1
1220 1536 -3.193E3
1261 1536 -3.193E3
478 1537 -1
480 1537 1
1229 1537 -3.193E3
1270 1537 -3.193E3
478 1538 -1
482 1538 1
1238 1538 -3.193E3
1279 1538 -3.193E3
478 1539 -1
483 1539 1
1246 1539 -3.193E3
1287 1539 -3.193E3
479 1540 1
480 1540 -1
1230 1540 -3.193E3
1271 1540 -3.193E3
479 1541 1
481 1541 -1
1233 1541 -3.193E3
1274 1541 -3.193E3
479 1542 1
482 1542 -1
1239 1542 -3.193E3
1280 1542 -3.193E3
479 1543 1
483 1543 -1
1247 1543 -3.193E3
1288 1543 -3.193E3
479 1544 -1
480 1544 1
1230 1544 -3.193E3
1271 1544 -3.193E3
479 1545 -1
481 1545 1
1233 1545 -3.193E3
1274 1545 -3.193E3
479 1546 -1
482 1546 1
1239 1546 -3.193E3
1280 1546 -3.193E3
479 1547 -1
483 1547 1
1247 1547 -3.193E3
1288 1547 -3.193E3
480 1548 1
481 1548 -1
1235 1548 -3.193E3
1276 1548 -3.193E3
480 1549 1
482 1549 -1
1241 1549 -3.193E3
1282 1549 -3.193E3
480 1550 1
483 1550 -1
1249 1550 -3.193E3
1290 1550 -3.193E3
480 1551 -1
481 1551 1
1235 1551 -3.193E3
1276 1551 -3.193E3
480 1552 -1
482 1552 1
1241 1552 -3.193E3
1282 1552 -3.193E3
480 1553 -1
483 1553 1
1249 1553 -3.193E3
1290 1553 -3.193E3
481 1554 1
482 1554 -1
1242 1554 -3.193E3
1283 1554 -3.193E3
481 1555 1
483 1555 -1
1250 1555 -3.193E3
1291 1555 -3.193E3
481 1556 -1
482 1556 1
1242 1556 -3.193E3
1283 1556 -3.193E3
481 1557 -1
483 1557 1
1250 1557 -3.193E3
1291 1557 -3.193E3
482 1558 1
483 1558 -1
1251 1558 -3.193E3
1292 1558 -3.193E3
482 1559 -1
483 1559 1
1251 1559 -3.193E3
1292 1559 -3.193E3
484 1560 1
1225 1560 -1.346E3
1266 1560 -1.346E3
485 1561 1
1230 1561 -1.346E3
1271 1561 -1.346E3
486 1562 1
1233 1562 -1.346E3
1274 1562 -1.346E3
487 1563 1
1236 1563 -1.346E3
1277 1563 -1.346E3
488 1564 1
1237 1564 -1.346E3
1278 1564 -1.346E3
489 1565 1
1238 1565 -1.346E3
1279 1565 -1.346E3
490 1566 1
1239 1566 -1.346E3
1280 1566 -1.346E3
491 1567 1
1240 1567 -1.346E3
1281 1567 -1.346E3
492 1568 1
1241 1568 -1.346E3
1282 1568 -1.346E3
493 1569 1
1242 1569 -1.346E3
1283 1569 -1.346E3
494 1570 1
1247 1570 -1.346E3
1288 1570 -1.346E3
495 1571 1
1217 1571 -1.346E3
1258 1571 -1.346E3
496 1572 1
1218 1572 -1.346E3
1259 1572 -1.346E3
497 1573 1
1219 1573 -1.346E3
1260 1573 -1.346E3
498 1574 1
1220 1574 -1.346E3
1261 1574 -1.346E3
499 1575 1
1251 1575 -1.346E3
1292 1575 -1.346E3
500 1576 1
509 1576 1
1251 1576 -1.346E3
1292 1576 -1.346E3
500 1577 1
502 1577 1
1236 1577 -1.346E3
1277 1577 -1.346E3
500 1578 1
504 1578 1
1237 1578 -1.346E3
1278 1578 -1.346E3
500 1579 1
505 1579 1
1238 1579 -1.346E3
1279 1579 -1.346E3
500 1580 1
501 1580 1
1239 1580 -1.346E3
1280 1580 -1.346E3
500 1581 1
506 1581 1
1240 1581 -1.346E3
1281 1581 -1.346E3
500 1582 1
507 1582 1
1241 1582 -1.346E3
1282 1582 -1.346E3
500 1583 1
508 1583 1
1242 1583 -1.346E3
1283 1583 -1.346E3
501 1584 1
502 1584 -1
1217 1584 -1.346E3
1258 1584 -1.346E3
501 1585 1
503 1585 -1
1218 1585 -1.346E3
1259 1585 -1.346E3
501 1586 1
504 1586 -1
1219 1586 -1.346E3
1260 1586 -1.346E3
501 1587 1
505 1587 -1
1220 1587 -1.346E3
1261 1587 -1.346E3
501 1588 1
506 1588 -1
1225 1588 -1.346E3
1266 1588 -1.346E3
501 1589 1
507 1589 -1
1230 1589 -1.346E3
1271 1589 -1.346E3
501 1590 1
508 1590 -1
1233 1590 -1.346E3
1274 1590 -1.346E3
501 1591 1
509 1591 -1
1247 1591 -1.346E3
1288 1591 -1.346E3
502 1592 1
503 1592 -1
1211 1592 -1.346E3
1252 1592 -1.346E3
502 1593 1
504 1593 -1
1212 1593 -1.346E3
1253 1593 -1.346E3
502 1594 1
505 1594 -1
1214 1594 -1.346E3
1255 1594 -1.346E3
502 1595 1
506 1595 -1
1221 1595 -1.346E3
1262 1595 -1.346E3
502 1596 1
507 1596 -1
1226 1596 -1.346E3
1267 1596 -1.346E3
502 1597 1
508 1597 -1
1232 1597 -1.346E3
1273 1597 -1.346E3
502 1598 1
509 1598 -1
1243 1598 -1.346E3
1284 1598 -1.346E3
502 1599 -1
503 1599 1
1211 1599 -1.346E3
1252 1599 -1.346E3
502 1600 -1
504 1600 1
1212 1600 -1.346E3
1253 1600 -1.346E3
502 1601 -1
505 1601 1
1214 1601 -1.346E3
1255 1601 -1.346E3
502 1602 -1
506 1602 1
1221 1602 -1.346E3
1262 1602 -1.346E3
502 1603 -1
507 1603 1
1226 1603 -1.346E3
1267 1603 -1.346E3
502 1604 -1
508 1604 1
1232 1604 -1.346E3
1273 1604 -1.346E3
502 1605 -1
509 1605 1
1243 1605 -1.346E3
1284 1605 -1.346E3
503 1606 1
504 1606 -1
1213 1606 -1.346E3
1254 1606 -1.346E3
503 1607 1
505 1607 -1
1215 1607 -1.346E3
1256 1607 -1.346E3
503 1608 1
506 1608 -1
1222 1608 -1.346E3
1263 1608 -1.346E3
503 1609 1
507 1609 -1
1227 1609 -1.346E3
1268 1609 -1.346E3
503 1610 1
509 1610 -1
1244 1610 -1.346E3
1285 1610 -1.346E3
503 1611 -1
504 1611 1
1213 1611 -1.346E3
1254 1611 -1.346E3
503 1612 -1
505 1612 1
1215 1612 -1.346E3
1256 1612 -1.346E3
503 1613 -1
506 1613 1
1222 1613 -1.346E3
1263 1613 -1.346E3
503 1614 -1
507 1614 1
1227 1614 -1.346E3
1268 1614 -1.346E3
503 1615 -1
509 1615 1
1244 1615 -1.346E3
1285 1615 -1.346E3
504 1616 1
505 1616 -1
1216 1616 -1.346E3
1257 1616 -1.346E3
504 1617 1
506 1617 -1
1223 1617 -1.346E3
1264 1617 -1.346E3
504 1618 1
507 1618 -1
1228 1618 -1.346E3
1269 1618 -1.346E3
504 1619 1
509 1619 -1
1245 1619 -1.346E3
1286 1619 -1.346E3
504 1620 -1
505 1620 1
1216 1620 -1.346E3
1257 1620 -1.346E3
504 1621 -1
506 1621 1
1223 1621 -1.346E3
1264 1621 -1.346E3
504 1622 -1
507 1622 1
1228 1622 -1.346E3
1269 1622 -1.346E3
504 1623 -1
509 1623 1
1245 1623 -1.346E3
1286 1623 -1.346E3
505 1624 1
506 1624 -1
1224 1624 -1.346E3
1265 1624 -1.346E3
505 1625 1
507 1625 -1
1229 1625 -1.346E3
1270 1625 -1.346E3
505 1626 1
509 1626 -1
1246 1626 -1.346E3
1287 1626 -1.346E3
505 1627 -1
506 1627 1
1224 1627 -1.346E3
1265 1627 -1.346E3
505 1628 -1
507 1628 1
1229 1628 -1.346E3
1270 1628 -1.346E3
505 1629 -1
509 1629 1
1246 1629 -1.346E3
1287 1629 -1.346E3
506 1630 1
507 1630 -1
1231 1630 -1.346E3
1272 1630 -1.346E3
506 1631 1
508 1631 -1
1234 1631 -1.346E3
1275 1631 -1.346E3
506 1632 1
509 1632 -1
1248 1632 -1.346E3
1289 1632 -1.346E3
506 1633 -1
507 1633 1
1231 1633 -1.346E3
1272 1633 -1.346E3
506 1634 -1
508 1634 1
1234 1634 -1.346E3
1275 1634 -1.346E3
506 1635 -1
509 1635 1
1248 1635 -1.346E3
1289 1635 -1.346E3
507 1636 1
508 1636 -1
1235 1636 -1.346E3
1276 1636 -1.346E3
507 1637 1
509 1637 -1
1249 1637 -1.346E3
1290 1637 -1.346E3
507 1638 -1
508 1638 1
1235 1638 -1.346E3
1276 1638 -1.346E3
507 1639 -1
509 1639 1
1249 1639 -1.346E3
1290 1639 -1.346E3
508 1640 1
509 1640 -1
1250 1640 -1.346E3
1291 1640 -1.346E3
508 1641 -1
509 1641 1
1250 1641 -1.346E3
1291 1641 -1.346E3
510 1642 1
1211 1642 -1.166E4
1252 1642 -1.166E4
511 1643 1
1235 1643 -1.166E4
1276 1643 -1.166E4
512 1644 1
1241 1644 -1.166E4
1282 1644 -1.166E4
513 1645 1
1249 1645 -1.166E4
1290 1645 -1.166E4
514 1646 1
1213 1646 -1.166E4
1254 1646 -1.166E4
515 1647 1
1215 1647 -1.166E4
1256 1647 -1.166E4
516 1648 1
1218 1648 -1.166E4
1259 1648 -1.166E4
517 1649 1
1222 1649 -1.166E4
1263 1649 -1.166E4
518 1650 1
1226 1650 -1.166E4
1267 1650 -1.166E4
519 1651 1
1227 1651 -1.166E4
1268 1651 -1.166E4
520 1652 1
1228 1652 -1.166E4
1269 1652 -1.166E4
521 1653 1
1229 1653 -1.166E4
1270 1653 -1.166E4
522 1654 1
1230 1654 -1.166E4
1271 1654 -1.166E4
523 1655 1
1231 1655 -1.166E4
1272 1655 -1.166E4
524 1656 1
1244 1656 -1.166E4
1285 1656 -1.166E4
525 1657 1
528 1657 1
1213 1657 -1.166E4
1254 1657 -1.166E4
525 1658 1
529 1658 1
1215 1658 -1.166E4
1256 1658 -1.166E4
525 1659 1
530 1659 1
1218 1659 -1.166E4
1259 1659 -1.166E4
525 1660 1
531 1660 1
1222 1660 -1.166E4
1263 1660 -1.166E4
525 1661 1
526 1661 1
1227 1661 -1.166E4
1268 1661 -1.166E4
525 1662 1
534 1662 1
1244 1662 -1.166E4
1285 1662 -1.166E4
525 1663 1
527 1663 1
1211 1663 -1.166E4
1252 1663 -1.166E4
526 1664 1
527 1664 -1
1226 1664 -1.166E4
1267 1664 -1.166E4
526 1665 1
528 1665 -1
1228 1665 -1.166E4
1269 1665 -1.166E4
526 1666 1
529 1666 -1
1229 1666 -1.166E4
1270 1666 -1.166E4
526 1667 1
530 1667 -1
1230 1667 -1.166E4
1271 1667 -1.166E4
526 1668 1
531 1668 -1
1231 1668 -1.166E4
1272 1668 -1.166E4
526 1669 1
532 1669 -1
1235 1669 -1.166E4
1276 1669 -1.166E4
526 1670 1
533 1670 -1
1241 1670 -1.166E4
1282 1670 -1.166E4
526 1671 1
534 1671 -1
1249 1671 -1.166E4
1290 1671 -1.166E4
527 1672 1
528 1672 -1
1212 1672 -1.166E4
1253 1672 -1.166E4
527 1673 1
529 1673 -1
1214 1673 -1.166E4
1255 1673 -1.166E4
527 1674 1
530 1674 -1
1217 1674 -1.166E4
1258 1674 -1.166E4
527 1675 1
531 1675 -1
1221 1675 -1.166E4
1262 1675 -1.166E4
527 1676 1
532 1676 -1
1232 1676 -1.166E4
1273 1676 -1.166E4
527 1677 1
533 1677 -1
1236 1677 -1.166E4
1277 1677 -1.166E4
527 1678 1
534 1678 -1
1243 1678 -1.166E4
1284 1678 -1.166E4
527 1679 -1
528 1679 1
1212 1679 -1.166E4
1253 1679 -1.166E4
527 1680 -1
529 1680 1
1214 1680 -1.166E4
1255 1680 -1.166E4
527 1681 -1
530 1681 1
1217 1681 -1.166E4
1258 1681 -1.166E4
527 1682 -1
531 1682 1
1221 1682 -1.166E4
1262 1682 -1.166E4
527 1683 -1
532 1683 1
1232 1683 -1.166E4
1273 1683 -1.166E4
527 1684 -1
533 1684 1
1236 1684 -1.166E4
1277 1684 -1.166E4
527 1685 -1
534 1685 1
1243 1685 -1.166E4
1284 1685 -1.166E4
528 1686 1
529 1686 -1
1216 1686 -1.166E4
1257 1686 -1.166E4
528 1687 1
530 1687 -1
1219 1687 -1.166E4
1260 1687 -1.166E4
528 1688 1
531 1688 -1
1223 1688 -1.166E4
1264 1688 -1.166E4
528 1689 1
533 1689 -1
1237 1689 -1.166E4
1278 1689 -1.166E4
528 1690 1
534 1690 -1
1245 1690 -1.166E4
1286 1690 -1.166E4
528 1691 -1
529 1691 1
1216 1691 -1.166E4
1257 1691 -1.166E4
528 1692 -1
530 1692 1
1219 1692 -1.166E4
1260 1692 -1.166E4
528 1693 -1
531 1693 1
1223 1693 -1.166E4
1264 1693 -1.166E4
528 1694 -1
533 1694 1
1237 1694 -1.166E4
1278 1694 -1.166E4
528 1695 -1
534 1695 1
1245 1695 -1.166E4
1286 1695 -1.166E4
529 1696 1
530 1696 -1
1220 1696 -1.166E4
1261 1696 -1.166E4
529 1697 1
531 1697 -1
1224 1697 -1.166E4
1265 1697 -1.166E4
529 1698 1
533 1698 -1
1238 1698 -1.166E4
1279 1698 -1.166E4
529 1699 1
534 1699 -1
1246 1699 -1.166E4
1287 1699 -1.166E4
529 1700 -1
530 1700 1
1220 1700 -1.166E4
1261 1700 -1.166E4
529 1701 -1
531 1701 1
1224 1701 -1.166E4
1265 1701 -1.166E4
529 1702 -1
533 1702 1
1238 1702 -1.166E4
1279 1702 -1.166E4
529 1703 -1
534 1703 1
1246 1703 -1.166E4
1287 1703 -1.166E4
530 1704 1
531 1704 -1
1225 1704 -1.166E4
1266 1704 -1.166E4
530 1705 1
532 1705 -1
1233 1705 -1.166E4
1274 1705 -1.166E4
530 1706 1
533 1706 -1
1239 1706 -1.166E4
1280 1706 -1.166E4
530 1707 1
534 1707 -1
1247 1707 -1.166E4
1288 1707 -1.166E4
530 1708 -1
531 1708 1
1225 1708 -1.166E4
1266 1708 -1.166E4
530 1709 -1
532 1709 1
1233 1709 -1.166E4
1274 1709 -1.166E4
530 1710 -1
533 1710 1
1239 1710 -1.166E4
1280 1710 -1.166E4
530 1711 -1
534 1711 1
1247 1711 -1.166E4
1288 1711 -1.166E4
531 1712 1
532 1712 -1
1234 1712 -1.166E4
1275 1712 -1.166E4
531 1713 1
533 1713 -1
1240 1713 -1.166E4
1281 1713 -1.166E4
531 1714 1
534 1714 -1
1248 1714 -1.166E4
1289 1714 -1.166E4
531 1715 -1
532 1715 1
1234 1715 -1.166E4
1275 1715 -1.166E4
531 1716 -1
533 1716 1
1240 1716 -1.166E4
1281 1716 -1.166E4
531 1717 -1
534 1717 1
1248 1717 -1.166E4
1289 1717 -1.166E4
532 1718 1
533 1718 -1
1242 1718 -1.166E4
1283 1718 -1.166E4
532 1719 1
534 1719 -1
1250 1719 -1.166E4
1291 1719 -1.166E4
532 1720 -1
533 1720 1
1242 1720 -1.166E4
1283 1720 -1.166E4
532 1721 -1
534 1721 1
1250 1721 -1.166E4
1291 1721 -1.166E4
533 1722 1
534 1722 -1
1251 1722 -1.166E4
1292 1722 -1.166E4
533 1723 -1
534 1723 1
1251 1723 -1.166E4
1292 1723 -1.166E4
535 1724 1
1225 1724 -1.0512E4
1266 1724 -1.0512E4
536 1725 1
1230 1725 -1.0512E4
1271 1725 -1.0512E4
537 1726 1
1232 1726 -1.0512E4
1273 1726 -1.0512E4
538 1727 1
1233 1727 -1.0512E4
1274 1727 -1.0512E4
539 1728 1
1234 1728 -1.0512E4
1275 1728 -1.0512E4
540 1729 1
1235 1729 -1.0512E4
1276 1729 -1.0512E4
541 1730 1
1239 1730 -1.0512E4
1280 1730 -1.0512E4
542 1731 1
1247 1731 -1.0512E4
1288 1731 -1.0512E4
543 1732 1
1217 1732 -1.0512E4
1258 1732 -1.0512E4
544 1733 1
1218 1733 -1.0512E4
1259 1733 -1.0512E4
545 1734 1
1219 1734 -1.0512E4
1260 1734 -1.0512E4
546 1735 1
1220 1735 -1.0512E4
1261 1735 -1.0512E4
547 1736 1
1242 1736 -1.0512E4
1283 1736 -1.0512E4
548 1737 1
1250 1737 -1.0512E4
1291 1737 -1.0512E4
549 1738 1
557 1738 1
1242 1738 -1.0512E4
1283 1738 -1.0512E4
549 1739 1
558 1739 1
1250 1739 -1.0512E4
1291 1739 -1.0512E4
549 1740 1
551 1740 1
1232 1740 -1.0512E4
1273 1740 -1.0512E4
549 1741 1
550 1741 1
1233 1741 -1.0512E4
1274 1741 -1.0512E4
549 1742 1
555 1742 1
1234 1742 -1.0512E4
1275 1742 -1.0512E4
549 1743 1
556 1743 1
1235 1743 -1.0512E4
1276 1743 -1.0512E4
550 1744 1
551 1744 -1
1217 1744 -1.0512E4
1258 1744 -1.0512E4
550 1745 1
552 1745 -1
1218 1745 -1.0512E4
1259 1745 -1.0512E4
550 1746 1
553 1746 -1
1219 1746 -1.0512E4
1260 1746 -1.0512E4
550 1747 1
554 1747 -1
1220 1747 -1.0512E4
1261 1747 -1.0512E4
550 1748 1
555 1748 -1
1225 1748 -1.0512E4
1266 1748 -1.0512E4
550 1749 1
556 1749 -1
1230 1749 -1.0512E4
1271 1749 -1.0512E4
550 1750 1
557 1750 -1
1239 1750 -1.0512E4
1280 1750 -1.0512E4
550 1751 1
558 1751 -1
1247 1751 -1.0512E4
1288 1751 -1.0512E4
551 1752 1
552 1752 -1
1211 1752 -1.0512E4
1252 1752 -1.0512E4
551 1753 1
553 1753 -1
1212 1753 -1.0512E4
1253 1753 -1.0512E4
551 1754 1
554 1754 -1
1214 1754 -1.0512E4
1255 1754 -1.0512E4
551 1755 1
555 1755 -1
1221 1755 -1.0512E4
1262 1755 -1.0512E4
551 1756 1
556 1756 -1
1226 1756 -1.0512E4
1267 1756 -1.0512E4
551 1757 1
557 1757 -1
1236 1757 -1.0512E4
1277 1757 -1.0512E4
551 1758 1
558 1758 -1
1243 1758 -1.0512E4
1284 1758 -1.0512E4
551 1759 -1
552 1759 1
1211 1759 -1.0512E4
1252 1759 -1.0512E4
551 1760 -1
553 1760 1
1212 1760 -1.0512E4
1253 1760 -1.0512E4
551 1761 -1
554 1761 1
1214 1761 -1.0512E4
1255 1761 -1.0512E4
551 1762 -1
555 1762 1
1221 1762 -1.0512E4
1262 1762 -1.0512E4
551 1763 -1
556 1763 1
1226 1763 -1.0512E4
1267 1763 -1.0512E4
551 1764 -1
557 1764 1
1236 1764 -1.0512E4
1277 1764 -1.0512E4
551 1765 -1
558 1765 1
1243 1765 -1.0512E4
1284 1765 -1.0512E4
552 1766 1
553 1766 -1
1213 1766 -1.0512E4
1254 1766 -1.0512E4
552 1767 1
554 1767 -1
1215 1767 -1.0512E4
1256 1767 -1.0512E4
552 1768 1
555 1768 -1
1222 1768 -1.0512E4
1263 1768 -1.0512E4
552 1769 1
556 1769 -1
1227 1769 -1.0512E4
1268 1769 -1.0512E4
552 1770 1
558 1770 -1
1244 1770 -1.0512E4
1285 1770 -1.0512E4
552 1771 -1
553 1771 1
1213 1771 -1.0512E4
1254 1771 -1.0512E4
552 1772 -1
554 1772 1
1215 1772 -1.0512E4
1256 1772 -1.0512E4
552 1773 -1
555 1773 1
1222 1773 -1.0512E4
1263 1773 -1.0512E4
552 1774 -1
556 1774 1
1227 1774 -1.0512E4
1268 1774 -1.0512E4
552 1775 -1
558 1775 1
1244 1775 -1.0512E4
1285 1775 -1.0512E4
553 1776 1
554 1776 -1
1216 1776 -1.0512E4
1257 1776 -1.0512E4
553 1777 1
555 1777 -1
1223 1777 -1.0512E4
1264 1777 -1.0512E4
553 1778 1
556 1778 -1
1228 1778 -1.0512E4
1269 1778 -1.0512E4
553 1779 1
557 1779 -1
1237 1779 -1.0512E4
1278 1779 -1.0512E4
553 1780 1
558 1780 -1
1245 1780 -1.0512E4
1286 1780 -1.0512E4
553 1781 -1
554 1781 1
1216 1781 -1.0512E4
1257 1781 -1.0512E4
553 1782 -1
555 1782 1
1223 1782 -1.0512E4
1264 1782 -1.0512E4
553 1783 -1
556 1783 1
1228 1783 -1.0512E4
1269 1783 -1.0512E4
553 1784 -1
557 1784 1
1237 1784 -1.0512E4
1278 1784 -1.0512E4
553 1785 -1
558 1785 1
1245 1785 -1.0512E4
1286 1785 -1.0512E4
554 1786 1
555 1786 -1
1224 1786 -1.0512E4
1265 1786 -1.0512E4
554 1787 1
556 1787 -1
1229 1787 -1.0512E4
1270 1787 -1.0512E4
554 1788 1
557 1788 -1
1238 1788 -1.0512E4
1279 1788 -1.0512E4
554 1789 1
558 1789 -1
1246 1789 -1.0512E4
1287 1789 -1.0512E4
554 1790 -1
555 1790 1
1224 1790 -1.0512E4
1265 1790 -1.0512E4
554 1791 -1
556 1791 1
1229 1791 -1.0512E4
1270 1791 -1.0512E4
554 1792 -1
557 1792 1
1238 1792 -1.0512E4
1279 1792 -1.0512E4
554 1793 -1
558 1793 1
1246 1793 -1.0512E4
1287 1793 -1.0512E4
555 1794 1
556 1794 -1
1231 1794 -1.0512E4
1272 1794 -1.0512E4
555 1795 1
557 1795 -1
1240 1795 -1.0512E4
1281 1795 -1.0512E4
555 1796 1
558 1796 -1
1248 1796 -1.0512E4
1289 1796 -1.0512E4
555 1797 -1
556 1797 1
1231 1797 -1.0512E4
1272 1797 -1.0512E4
555 1798 -1
557 1798 1
1240 1798 -1.0512E4
1281 1798 -1.0512E4
555 1799 -1
558 1799 1
1248 1799 -1.0512E4
1289 1799 -1.0512E4
556 1800 1
557 1800 -1
1241 1800 -1.0512E4
1282 1800 -1.0512E4
556 1801 1
558 1801 -1
1249 1801 -1.0512E4
1290 1801 -1.0512E4
556 1802 -1
557 1802 1
1241 1802 -1.0512E4
1282 1802 -1.0512E4
556 1803 -1
558 1803 1
1249 1803 -1.0512E4
1290 1803 -1.0512E4
557 1804 1
558 1804 -1
1251 1804 -1.0512E4
1292 1804 -1.0512E4
557 1805 -1
558 1805 1
1251 1805 -1.0512E4
1292 1805 -1.0512E4
559 1806 1
1211 1806 -2.44E3
1252 1806 -2.44E3
560 1807 1
1251 1807 -2.44E3
1292 1807 -2.44E3
561 1808 1
1213 1808 -2.44E3
1254 1808 -2.44E3
562 1809 1
1215 1809 -2.44E3
1256 1809 -2.44E3
563 1810 1
1218 1810 -2.44E3
1259 1810 -2.44E3
564 1811 1
1222 1811 -2.44E3
1263 1811 -2.44E3
565 1812 1
1227 1812 -2.44E3
1268 1812 -2.44E3
566 1813 1
1236 1813 -2.44E3
1277 1813 -2.44E3
567 1814 1
1237 1814 -2.44E3
1278 1814 -2.44E3
568 1815 1
1238 1815 -2.44E3
1279 1815 -2.44E3
569 1816 1
1239 1816 -2.44E3
1280 1816 -2.44E3
570 1817 1
1240 1817 -2.44E3
1281 1817 -2.44E3
571 1818 1
1241 1818 -2.44E3
1282 1818 -2.44E3
572 1819 1
1242 1819 -2.44E3
1283 1819 -2.44E3
573 1820 1
1244 1820 -2.44E3
1285 1820 -2.44E3
574 1821 1
577 1821 1
1213 1821 -2.44E3
1254 1821 -2.44E3
574 1822 1
578 1822 1
1215 1822 -2.44E3
1256 1822 -2.44E3
574 1823 1
579 1823 1
1218 1823 -2.44E3
1259 1823 -2.44E3
574 1824 1
580 1824 1
1222 1824 -2.44E3
1263 1824 -2.44E3
574 1825 1
581 1825 1
1227 1825 -2.44E3
1268 1825 -2.44E3
574 1826 1
583 1826 1
1244 1826 -2.44E3
1285 1826 -2.44E3
574 1827 1
576 1827 1
1211 1827 -2.44E3
1252 1827 -2.44E3
575 1828 1
576 1828 -1
1236 1828 -2.44E3
1277 1828 -2.44E3
575 1829 1
577 1829 -1
1237 1829 -2.44E3
1278 1829 -2.44E3
575 1830 1
578 1830 -1
1238 1830 -2.44E3
1279 1830 -2.44E3
575 1831 1
579 1831 -1
1239 1831 -2.44E3
1280 1831 -2.44E3
575 1832 1
580 1832 -1
1240 1832 -2.44E3
1281 1832 -2.44E3
575 1833 1
581 1833 -1
1241 1833 -2.44E3
1282 1833 -2.44E3
575 1834 1
582 1834 -1
1242 1834 -2.44E3
1283 1834 -2.44E3
575 1835 1
583 1835 -1
1251 1835 -2.44E3
1292 1835 -2.44E3
576 1836 1
577 1836 -1
1212 1836 -2.44E3
1253 1836 -2.44E3
576 1837 1
578 1837 -1
1214 1837 -2.44E3
1255 1837 -2.44E3
576 1838 1
579 1838 -1
1217 1838 -2.44E3
1258 1838 -2.44E3
576 1839 1
580 1839 -1
1221 1839 -2.44E3
1262 1839 -2.44E3
576 1840 1
581 1840 -1
1226 1840 -2.44E3
1267 1840 -2.44E3
576 1841 1
582 1841 -1
1232 1841 -2.44E3
1273 1841 -2.44E3
576 1842 1
583 1842 -1
1243 1842 -2.44E3
1284 1842 -2.44E3
576 1843 -1
577 1843 1
1212 1843 -2.44E3
1253 1843 -2.44E3
576 1844 -1
578 1844 1
1214 1844 -2.44E3
1255 1844 -2.44E3
576 1845 -1
579 1845 1
1217 1845 -2.44E3
1258 1845 -2.44E3
576 1846 -1
580 1846 1
1221 1846 -2.44E3
1262 1846 -2.44E3
576 1847 -1
581 1847 1
1226 1847 -2.44E3
1267 1847 -2.44E3
576 1848 -1
582 1848 1
1232 1848 -2.44E3
1273 1848 -2.44E3
576 1849 -1
583 1849 1
1243 1849 -2.44E3
1284 1849 -2.44E3
577 1850 1
578 1850 -1
1216 1850 -2.44E3
1257 1850 -2.44E3
577 1851 1
579 1851 -1
1219 1851 -2.44E3
1260 1851 -2.44E3
577 1852 1
580 1852 -1
1223 1852 -2.44E3
1264 1852 -2.44E3
577 1853 1
581 1853 -1
1228 1853 -2.44E3
1269 1853 -2.44E3
577 1854 1
583 1854 -1
1245 1854 -2.44E3
1286 1854 -2.44E3
577 1855 -1
578 1855 1
1216 1855 -2.44E3
1257 1855 -2.44E3
577 1856 -1
579 1856 1
1219 1856 -2.44E3
1260 1856 -2.44E3
577 1857 -1
580 1857 1
1223 1857 -2.44E3
1264 1857 -2.44E3
577 1858 -1
581 1858 1
1228 1858 -2.44E3
1269 1858 -2.44E3
577 1859 -1
583 1859 1
1245 1859 -2.44E3
1286 1859 -2.44E3
578 1860 1
579 1860 -1
1220 1860 -2.44E3
1261 1860 -2.44E3
578 1861 1
580 1861 -1
1224 1861 -2.44E3
1265 1861 -2.44E3
578 1862 1
581 1862 -1
1229 1862 -2.44E3
1270 1862 -2.44E3
578 1863 1
583 1863 -1
1246 1863 -2.44E3
1287 1863 -2.44E3
578 1864 -1
579 1864 1
1220 1864 -2.44E3
1261 1864 -2.44E3
578 1865 -1
580 1865 1
1224 1865 -2.44E3
1265 1865 -2.44E3
578 1866 -1
581 1866 1
1229 1866 -2.44E3
1270 1866 -2.44E3
578 1867 -1
583 1867 1
1246 1867 -2.44E3
1287 1867 -2.44E3
579 1868 1
580 1868 -1
1225 1868 -2.44E3
1266 1868 -2.44E3
579 1869 1
581 1869 -1
1230 1869 -2.44E3
1271 1869 -2.44E3
579 1870 1
582 1870 -1
1233 1870 -2.44E3
1274 1870 -2.44E3
579 1871 1
583 1871 -1
1247 1871 -2.44E3
1288 1871 -2.44E3
579 1872 -1
580 1872 1
1225 1872 -2.44E3
1266 1872 -2.44E3
579 1873 -1
581 1873 1
1230 1873 -2.44E3
1271 1873 -2.44E3
579 1874 -1
582 1874 1
1233 1874 -2.44E3
1274 1874 -2.44E3
579 1875 -1
583 1875 1
1247 1875 -2.44E3
1288 1875 -2.44E3
580 1876 1
581 1876 -1
1231 1876 -2.44E3
1272 1876 -2.44E3
580 1877 1
582 1877 -1
1234 1877 -2.44E3
1275 1877 -2.44E3
580 1878 1
583 1878 -1
1248 1878 -2.44E3
1289 1878 -2.44E3
580 1879 -1
581 1879 1
1231 1879 -2.44E3
1272 1879 -2.44E3
580 1880 -1
582 1880 1
1234 1880 -2.44E3
1275 1880 -2.44E3
580 1881 -1
583 1881 1
1248 1881 -2.44E3
1289 1881 -2.44E3
581 1882 1
582 1882 -1
1235 1882 -2.44E3
1276 1882 -2.44E3
581 1883 1
583 1883 -1
1249 1883 -2.44E3
1290 1883 -2.44E3
581 1884 -1
582 1884 1
1235 1884 -2.44E3
1276 1884 -2.44E3
581 1885 -1
583 1885 1
1249 1885 -2.44E3
1290 1885 -2.44E3
582 1886 1
583 1886 -1
1250 1886 -2.44E3
1291 1886 -2.44E3
582 1887 -1
583 1887 1
1250 1887 -2.44E3
1291 1887 -2.44E3
584 1888 1
1225 1888 -4.51E3
1266 1888 -4.51E3
585 1889 1
1226 1889 -4.51E3
1267 1889 -4.51E3
586 1890 1
1227 1890 -4.51E3
1268 1890 -4.51E3
587 1891 1
1228 1891 -4.51E3
1269 1891 -4.51E3
588 1892 1
1229 1892 -4.51E3
1270 1892 -4.51E3
589 1893 1
1230 1893 -4.51E3
1271 1893 -4.51E3
590 1894 1
1231 1894 -4.51E3
1272 1894 -4.51E3
591 1895 1
1233 1895 -4.51E3
1274 1895 -4.51E3
592 1896 1
1239 1896 -4.51E3
1280 1896 -4.51E3
593 1897 1
1247 1897 -4.51E3
1288 1897 -4.51E3
594 1898 1
1217 1898 -4.51E3
1258 1898 -4.51E3
595 1899 1
1218 1899 -4.51E3
1259 1899 -4.51E3
596 1900 1
1219 1900 -4.51E3
1260 1900 -4.51E3
597 1901 1
1220 1901 -4.51E3
1261 1901 -4.51E3
598 1902 1
1235 1902 -4.51E3
1276 1902 -4.51E3
599 1903 1
1241 1903 -4.51E3
1282 1903 -4.51E3
600 1904 1
1249 1904 -4.51E3
1290 1904 -4.51E3
601 1905 1
608 1905 1
1235 1905 -4.51E3
1276 1905 -4.51E3
601 1906 1
609 1906 1
1241 1906 -4.51E3
1282 1906 -4.51E3
601 1907 1
610 1907 1
1249 1907 -4.51E3
1290 1907 -4.51E3
601 1908 1
603 1908 1
1226 1908 -4.51E3
1267 1908 -4.51E3
601 1909 1
604 1909 1
1227 1909 -4.51E3
1268 1909 -4.51E3
601 1910 1
605 1910 1
1228 1910 -4.51E3
1269 1910 -4.51E3
601 1911 1
606 1911 1
1229 1911 -4.51E3
1270 1911 -4.51E3
601 1912 1
602 1912 1
1230 1912 -4.51E3
1271 1912 -4.51E3
601 1913 1
607 1913 1
1231 1913 -4.51E3
1272 1913 -4.51E3
602 1914 1
603 1914 -1
1217 1914 -4.51E3
1258 1914 -4.51E3
602 1915 1
604 1915 -1
1218 1915 -4.51E3
1259 1915 -4.51E3
602 1916 1
605 1916 -1
1219 1916 -4.51E3
1260 1916 -4.51E3
602 1917 1
606 1917 -1
1220 1917 -4.51E3
1261 1917 -4.51E3
602 1918 1
607 1918 -1
1225 1918 -4.51E3
1266 1918 -4.51E3
602 1919 1
608 1919 -1
1233 1919 -4.51E3
1274 1919 -4.51E3
602 1920 1
609 1920 -1
1239 1920 -4.51E3
1280 1920 -4.51E3
602 1921 1
610 1921 -1
1247 1921 -4.51E3
1288 1921 -4.51E3
603 1922 1
604 1922 -1
1211 1922 -4.51E3
1252 1922 -4.51E3
603 1923 1
605 1923 -1
1212 1923 -4.51E3
1253 1923 -4.51E3
603 1924 1
606 1924 -1
1214 1924 -4.51E3
1255 1924 -4.51E3
603 1925 1
607 1925 -1
1221 1925 -4.51E3
1262 1925 -4.51E3
603 1926 1
608 1926 -1
1232 1926 -4.51E3
1273 1926 -4.51E3
603 1927 1
609 1927 -1
1236 1927 -4.51E3
1277 1927 -4.51E3
603 1928 1
610 1928 -1
1243 1928 -4.51E3
1284 1928 -4.51E3
603 1929 -1
604 1929 1
1211 1929 -4.51E3
1252 1929 -4.51E3
603 1930 -1
605 1930 1
1212 1930 -4.51E3
1253 1930 -4.51E3
603 1931 -1
606 1931 1
1214 1931 -4.51E3
1255 1931 -4.51E3
603 1932 -1
607 1932 1
1221 1932 -4.51E3
1262 1932 -4.51E3
603 1933 -1
608 1933 1
1232 1933 -4.51E3
1273 1933 -4.51E3
603 1934 -1
609 1934 1
1236 1934 -4.51E3
1277 1934 -4.51E3
603 1935 -1
610 1935 1
1243 1935 -4.51E3
1284 1935 -4.51E3
604 1936 1
605 1936 -1
1213 1936 -4.51E3
1254 1936 -4.51E3
604 1937 1
606 1937 -1
1215 1937 -4.51E3
1256 1937 -4.51E3
604 1938 1
607 1938 -1
1222 1938 -4.51E3
1263 1938 -4.51E3
604 1939 1
610 1939 -1
1244 1939 -4.51E3
1285 1939 -4.51E3
604 1940 -1
605 1940 1
1213 1940 -4.51E3
1254 1940 -4.51E3
604 1941 -1
606 1941 1
1215 1941 -4.51E3
1256 1941 -4.51E3
604 1942 -1
607 1942 1
1222 1942 -4.51E3
1263 1942 -4.51E3
604 1943 -1
610 1943 1
1244 1943 -4.51E3
1285 1943 -4.51E3
605 1944 1
606 1944 -1
1216 1944 -4.51E3
1257 1944 -4.51E3
605 1945 1
607 1945 -1
1223 1945 -4.51E3
1264 1945 -4.51E3
605 1946 1
609 1946 -1
1237 1946 -4.51E3
1278 1946 -4.51E3
605 1947 1
610 1947 -1
1245 1947 -4.51E3
1286 1947 -4.51E3
605 1948 -1
606 1948 1
1216 1948 -4.51E3
1257 1948 -4.51E3
605 1949 -1
607 1949 1
1223 1949 -4.51E3
1264 1949 -4.51E3
605 1950 -1
609 1950 1
1237 1950 -4.51E3
1278 1950 -4.51E3
605 1951 -1
610 1951 1
1245 1951 -4.51E3
1286 1951 -4.51E3
606 1952 1
607 1952 -1
1224 1952 -4.51E3
1265 1952 -4.51E3
606 1953 1
609 1953 -1
1238 1953 -4.51E3
1279 1953 -4.51E3
606 1954 1
610 1954 -1
1246 1954 -4.51E3
1287 1954 -4.51E3
606 1955 -1
607 1955 1
1224 1955 -4.51E3
1265 1955 -4.51E3
606 1956 -1
609 1956 1
1238 1956 -4.51E3
1279 1956 -4.51E3
606 1957 -1
610 1957 1
1246 1957 -4.51E3
1287 1957 -4.51E3
607 1958 1
608 1958 -1
1234 1958 -4.51E3
1275 1958 -4.51E3
607 1959 1
609 1959 -1
1240 1959 -4.51E3
1281 1959 -4.51E3
607 1960 1
610 1960 -1
1248 1960 -4.51E3
1289 1960 -4.51E3
607 1961 -1
608 1961 1
1234 1961 -4.51E3
1275 1961 -4.51E3
607 1962 -1
609 1962 1
1240 1962 -4.51E3
1281 1962 -4.51E3
607 1963 -1
610 1963 1
1248 1963 -4.51E3
1289 1963 -4.51E3
608 1964 1
609 1964 -1
1242 1964 -4.51E3
1283 1964 -4.51E3
608 1965 1
610 1965 -1
1250 1965 -4.51E3
1291 1965 -4.51E3
608 1966 -1
609 1966 1
1242 1966 -4.51E3
1283 1966 -4.51E3
608 1967 -1
610 1967 1
1250 1967 -4.51E3
1291 1967 -4.51E3
609 1968 1
610 1968 -1
1251 1968 -4.51E3
1292 1968 -4.51E3
609 1969 -1
610 1969 1
1251 1969 -4.51E3
1292 1969 -4.51E3
611 1970 1
1212 1970 -9.483E3
1253 1970 -9.483E3
612 1971 1
1213 1971 -9.483E3
1254 1971 -9.483E3
613 1972 1
1225 1972 -9.483E3
1266 1972 -9.483E3
614 1973 1
1230 1973 -9.483E3
1271 1973 -9.483E3
615 1974 1
1233 1974 -9.483E3
1274 1974 -9.483E3
616 1975 1
1239 1975 -9.483E3
1280 1975 -9.483E3
617 1976 1
1247 1976 -9.483E3
1288 1976 -9.483E3
618 1977 1
1216 1977 -9.483E3
1257 1977 -9.483E3
619 1978 1
1217 1978 -9.483E3
1258 1978 -9.483E3
620 1979 1
1218 1979 -9.483E3
1259 1979 -9.483E3
621 1980 1
1219 1980 -9.483E3
1260 1980 -9.483E3
622 1981 1
1220 1981 -9.483E3
1261 1981 -9.483E3
623 1982 1
1223 1982 -9.483E3
1264 1982 -9.483E3
624 1983 1
1228 1983 -9.483E3
1269 1983 -9.483E3
625 1984 1
1237 1984 -9.483E3
1278 1984 -9.483E3
626 1985 1
1245 1985 -9.483E3
1286 1985 -9.483E3
627 1986 1
631 1986 1
1216 1986 -9.483E3
1257 1986 -9.483E3
627 1987 1
628 1987 1
1219 1987 -9.483E3
1260 1987 -9.483E3
627 1988 1
632 1988 1
1223 1988 -9.483E3
1264 1988 -9.483E3
627 1989 1
633 1989 1
1228 1989 -9.483E3
1269 1989 -9.483E3
627 1990 1
635 1990 1
1237 1990 -9.483E3
1278 1990 -9.483E3
627 1991 1
636 1991 1
1245 1991 -9.483E3
1286 1991 -9.483E3
627 1992 1
629 1992 1
1212 1992 -9.483E3
1253 1992 -9.483E3
627 1993 1
630 1993 1
1213 1993 -9.483E3
1254 1993 -9.483E3
628 1994 1
629 1994 -1
1217 1994 -9.483E3
1258 1994 -9.483E3
628 1995 1
630 1995 -1
1218 1995 -9.483E3
1259 1995 -9.483E3
628 1996 1
631 1996 -1
1220 1996 -9.483E3
1261 1996 -9.483E3
628 1997 1
632 1997 -1
1225 1997 -9.483E3
1266 1997 -9.483E3
628 1998 1
633 1998 -1
1230 1998 -9.483E3
1271 1998 -9.483E3
628 1999 1
634 1999 -1
1233 1999 -9.483E3
1274 1999 -9.483E3
628 2000 1
635 2000 -1
1239 2000 -9.483E3
1280 2000 -9.483E3
628 2001 1
636 2001 -1
1247 2001 -9.483E3
1288 2001 -9.483E3
629 2002 1
630 2002 -1
1211 2002 -9.483E3
1252 2002 -9.483E3
629 2003 1
631 2003 -1
1214 2003 -9.483E3
1255 2003 -9.483E3
629 2004 1
632 2004 -1
1221 2004 -9.483E3
1262 2004 -9.483E3
629 2005 1
633 2005 -1
1226 2005 -9.483E3
1267 2005 -9.483E3
629 2006 1
634 2006 -1
1232 2006 -9.483E3
1273 2006 -9.483E3
629 2007 1
635 2007 -1
1236 2007 -9.483E3
1277 2007 -9.483E3
629 2008 1
636 2008 -1
1243 2008 -9.483E3
1284 2008 -9.483E3
629 2009 -1
630 2009 1
1211 2009 -9.483E3
1252 2009 -9.483E3
629 2010 -1
631 2010 1
1214 2010 -9.483E3
1255 2010 -9.483E3
629 2011 -1
632 2011 1
1221 2011 -9.483E3
1262 2011 -9.483E3
629 2012 -1
633 2012 1
1226 2012 -9.483E3
1267 2012 -9.483E3
629 2013 -1
634 2013 1
1232 2013 -9.483E3
1273 2013 -9.483E3
629 2014 -1
635 2014 1
1236 2014 -9.483E3
1277 2014 -9.483E3
629 2015 -1
636 2015 1
1243 2015 -9.483E3
1284 2015 -9.483E3
630 2016 1
631 2016 -1
1215 2016 -9.483E3
1256 2016 -9.483E3
630 2017 1
632 2017 -1
1222 2017 -9.483E3
1263 2017 -9.483E3
630 2018 1
633 2018 -1
1227 2018 -9.483E3
1268 2018 -9.483E3
630 2019 1
636 2019 -1
1244 2019 -9.483E3
1285 2019 -9.483E3
630 2020 -1
631 2020 1
1215 2020 -9.483E3
1256 2020 -9.483E3
630 2021 -1
632 2021 1
1222 2021 -9.483E3
1263 2021 -9.483E3
630 2022 -1
633 2022 1
1227 2022 -9.483E3
1268 2022 -9.483E3
630 2023 -1
636 2023 1
1244 2023 -9.483E3
1285 2023 -9.483E3
631 2024 1
632 2024 -1
1224 2024 -9.483E3
1265 2024 -9.483E3
631 2025 1
633 2025 -1
1229 2025 -9.483E3
1270 2025 -9.483E3
631 2026 1
635 2026 -1
1238 2026 -9.483E3
1279 2026 -9.483E3
631 2027 1
636 2027 -1
1246 2027 -9.483E3
1287 2027 -9.483E3
631 2028 -1
632 2028 1
1224 2028 -9.483E3
1265 2028 -9.483E3
631 2029 -1
633 2029 1
1229 2029 -9.483E3
1270 2029 -9.483E3
631 2030 -1
635 2030 1
1238 2030 -9.483E3
1279 2030 -9.483E3
631 2031 -1
636 2031 1
1246 2031 -9.483E3
1287 2031 -9.483E3
632 2032 1
633 2032 -1
1231 2032 -9.483E3
1272 2032 -9.483E3
632 2033 1
634 2033 -1
1234 2033 -9.483E3
1275 2033 -9.483E3
632 2034 1
635 2034 -1
1240 2034 -9.483E3
1281 2034 -9.483E3
632 2035 1
636 2035 -1
1248 2035 -9.483E3
1289 2035 -9.483E3
632 2036 -1
633 2036 1
1231 2036 -9.483E3
1272 2036 -9.483E3
632 2037 -1
634 2037 1
1234 2037 -9.483E3
1275 2037 -9.483E3
632 2038 -1
635 2038 1
1240 2038 -9.483E3
1281 2038 -9.483E3
632 2039 -1
636 2039 1
1248 2039 -9.483E3
1289 2039 -9.483E3
633 2040 1
634 2040 -1
1235 2040 -9.483E3
1276 2040 -9.483E3
633 2041 1
635 2041 -1
1241 2041 -9.483E3
1282 2041 -9.483E3
633 2042 1
636 2042 -1
1249 2042 -9.483E3
1290 2042 -9.483E3
633 2043 -1
634 2043 1
1235 2043 -9.483E3
1276 2043 -9.483E3
633 2044 -1
635 2044 1
1241 2044 -9.483E3
1282 2044 -9.483E3
633 2045 -1
636 2045 1
1249 2045 -9.483E3
1290 2045 -9.483E3
634 2046 1
635 2046 -1
1242 2046 -9.483E3
1283 2046 -9.483E3
634 2047 1
636 2047 -1
1250 2047 -9.483E3
1291 2047 -9.483E3
634 2048 -1
635 2048 1
1242 2048 -9.483E3
1283 2048 -9.483E3
634 2049 -1
636 2049 1
1250 2049 -9.483E3
1291 2049 -9.483E3
635 2050 1
636 2050 -1
1251 2050 -9.483E3
1292 2050 -9.483E3
635 2051 -1
636 2051 1
1251 2051 -9.483E3
1292 2051 -9.483E3
637 2052 1
1221 2052 -8.57E2
1262 2052 -8.57E2
638 2053 1
1222 2053 -8.57E2
1263 2053 -8.57E2
639 2054 1
1223 2054 -8.57E2
1264 2054 -8.57E2
640 2055 1
1224 2055 -8.57E2
1265 2055 -8.57E2
641 2056 1
1225 2056 -8.57E2
1266 2056 -8.57E2
642 2057 1
1230 2057 -8.57E2
1271 2057 -8.57E2
643 2058 1
1233 2058 -8.57E2
1274 2058 -8.57E2
644 2059 1
1239 2059 -8.57E2
1280 2059 -8.57E2
645 2060 1
1247 2060 -8.57E2
1288 2060 -8.57E2
646 2061 1
1217 2061 -8.57E2
1258 2061 -8.57E2
647 2062 1
1218 2062 -8.57E2
1259 2062 -8.57E2
648 2063 1
1219 2063 -8.57E2
1260 2063 -8.57E2
649 2064 1
1220 2064 -8.57E2
1261 2064 -8.57E2
650 2065 1
1231 2065 -8.57E2
1272 2065 -8.57E2
651 2066 1
1234 2066 -8.57E2
1275 2066 -8.57E2
652 2067 1
1240 2067 -8.57E2
1281 2067 -8.57E2
653 2068 1
1248 2068 -8.57E2
1289 2068 -8.57E2
654 2069 1
660 2069 1
1231 2069 -8.57E2
1272 2069 -8.57E2
654 2070 1
661 2070 1
1234 2070 -8.57E2
1275 2070 -8.57E2
654 2071 1
662 2071 1
1240 2071 -8.57E2
1281 2071 -8.57E2
654 2072 1
663 2072 1
1248 2072 -8.57E2
1289 2072 -8.57E2
654 2073 1
656 2073 1
1221 2073 -8.57E2
1262 2073 -8.57E2
654 2074 1
657 2074 1
1222 2074 -8.57E2
1263 2074 -8.57E2
654 2075 1
658 2075 1
1223 2075 -8.57E2
1264 2075 -8.57E2
654 2076 1
659 2076 1
1224 2076 -8.57E2
1265 2076 -8.57E2
654 2077 1
655 2077 1
1225 2077 -8.57E2
1266 2077 -8.57E2
655 2078 1
656 2078 -1
1217 2078 -8.57E2
1258 2078 -8.57E2
655 2079 1
657 2079 -1
1218 2079 -8.57E2
1259 2079 -8.57E2
655 2080 1
658 2080 -1
1219 2080 -8.57E2
1260 2080 -8.57E2
655 2081 1
659 2081 -1
1220 2081 -8.57E2
1261 2081 -8.57E2
655 2082 1
660 2082 -1
1230 2082 -8.57E2
1271 2082 -8.57E2
655 2083 1
661 2083 -1
1233 2083 -8.57E2
1274 2083 -8.57E2
655 2084 1
662 2084 -1
1239 2084 -8.57E2
1280 2084 -8.57E2
655 2085 1
663 2085 -1
1247 2085 -8.57E2
1288 2085 -8.57E2
656 2086 1
657 2086 -1
1211 2086 -8.57E2
1252 2086 -8.57E2
656 2087 1
658 2087 -1
1212 2087 -8.57E2
1253 2087 -8.57E2
656 2088 1
659 2088 -1
1214 2088 -8.57E2
1255 2088 -8.57E2
656 2089 1
660 2089 -1
1226 2089 -8.57E2
1267 2089 -8.57E2
656 2090 1
661 2090 -1
1232 2090 -8.57E2
1273 2090 -8.57E2
656 2091 1
662 2091 -1
1236 2091 -8.57E2
1277 2091 -8.57E2
656 2092 1
663 2092 -1
1243 2092 -8.57E2
1284 2092 -8.57E2
656 2093 -1
657 2093 1
1211 2093 -8.57E2
1252 2093 -8.57E2
656 2094 -1
658 2094 1
1212 2094 -8.57E2
1253 2094 -8.57E2
656 2095 -1
659 2095 1
1214 2095 -8.57E2
1255 2095 -8.57E2
656 2096 -1
660 2096 1
1226 2096 -8.57E2
1267 2096 -8.57E2
656 2097 -1
661 2097 1
1232 2097 -8.57E2
1273 2097 -8.57E2
656 2098 -1
662 2098 1
1236 2098 -8.57E2
1277 2098 -8.57E2
656 2099 -1
663 2099 1
1243 2099 -8.57E2
1284 2099 -8.57E2
657 2100 1
658 2100 -1
1213 2100 -8.57E2
1254 2100 -8.57E2
657 2101 1
659 2101 -1
1215 2101 -8.57E2
1256 2101 -8.57E2
657 2102 1
660 2102 -1
1227 2102 -8.57E2
1268 2102 -8.57E2
657 2103 1
663 2103 -1
1244 2103 -8.57E2
1285 2103 -8.57E2
657 2104 -1
658 2104 1
1213 2104 -8.57E2
1254 2104 -8.57E2
657 2105 -1
659 2105 1
1215 2105 -8.57E2
1256 2105 -8.57E2
657 2106 -1
660 2106 1
1227 2106 -8.57E2
1268 2106 -8.57E2
657 2107 -1
663 2107 1
1244 2107 -8.57E2
1285 2107 -8.57E2
658 2108 1
659 2108 -1
1216 2108 -8.57E2
1257 2108 -8.57E2
658 2109 1
660 2109 -1
1228 2109 -8.57E2
1269 2109 -8.57E2
658 2110 1
662 2110 -1
1237 2110 -8.57E2
1278 2110 -8.57E2
658 2111 1
663 2111 -1
1245 2111 -8.57E2
1286 2111 -8.57E2
658 2112 -1
659 2112 1
1216 2112 -8.57E2
1257 2112 -8.57E2
658 2113 -1
660 2113 1
1228 2113 -8.57E2
1269 2113 -8.57E2
658 2114 -1
662 2114 1
1237 2114 -8.57E2
1278 2114 -8.57E2
658 2115 -1
663 2115 1
1245 2115 -8.57E2
1286 2115 -8.57E2
659 2116 1
660 2116 -1
1229 2116 -8.57E2
1270 2116 -8.57E2
659 2117 1
662 2117 -1
1238 2117 -8.57E2
1279 2117 -8.57E2
659 2118 1
663 2118 -1
1246 2118 -8.57E2
1287 2118 -8.57E2
659 2119 -1
660 2119 1
1229 2119 -8.57E2
1270 2119 -8.57E2
659 2120 -1
662 2120 1
1238 2120 -8.57E2
1279 2120 -8.57E2
659 2121 -1
663 2121 1
1246 2121 -8.57E2
1287 2121 -8.57E2
660 2122 1
661 2122 -1
1235 2122 -8.57E2
1276 2122 -8.57E2
660 2123 1
662 2123 -1
1241 2123 -8.57E2
1282 2123 -8.57E2
660 2124 1
663 2124 -1
1249 2124 -8.57E2
1290 2124 -8.57E2
660 2125 -1
661 2125 1
1235 2125 -8.57E2
1276 2125 -8.57E2
660 2126 -1
662 2126 1
1241 2126 -8.57E2
1282 2126 -8.57E2
660 2127 -1
663 2127 1
1249 2127 -8.57E2
1290 2127 -8.57E2
661 2128 1
662 2128 -1
1242 2128 -8.57E2
1283 2128 -8.57E2
661 2129 1
663 2129 -1
1250 2129 -8.57E2
1291 2129 -8.57E2
661 2130 -1
662 2130 1
1242 2130 -8.57E2
1283 2130 -8.57E2
661 2131 -1
663 2131 1
1250 2131 -8.57E2
1291 2131 -8.57E2
662 2132 1
663 2132 -1
1251 2132 -8.57E2
1292 2132 -8.57E2
662 2133 -1
663 2133 1
1251 2133 -8.57E2
1292 2133 -8.57E2
664 2134 1
1212 2134 -3.04E2
1253 2134 -3.04E2
665 2135 1
1213 2135 -3.04E2
1254 2135 -3.04E2
666 2136 1
1231 2136 -3.04E2
1272 2136 -3.04E2
667 2137 1
1234 2137 -3.04E2
1275 2137 -3.04E2
668 2138 1
1240 2138 -3.04E2
1281 2138 -3.04E2
669 2139 1
1248 2139 -3.04E2
1289 2139 -3.04E2
670 2140 1
1216 2140 -3.04E2
1257 2140 -3.04E2
671 2141 1
1219 2141 -3.04E2
1260 2141 -3.04E2
672 2142 1
1221 2142 -3.04E2
1262 2142 -3.04E2
673 2143 1
1222 2143 -3.04E2
1263 2143 -3.04E2
674 2144 1
1223 2144 -3.04E2
1264 2144 -3.04E2
675 2145 1
1224 2145 -3.04E2
1265 2145 -3.04E2
676 2146 1
1225 2146 -3.04E2
1266 2146 -3.04E2
677 2147 1
1228 2147 -3.04E2
1269 2147 -3.04E2
678 2148 1
1237 2148 -3.04E2
1278 2148 -3.04E2
679 2149 1
1245 2149 -3.04E2
1286 2149 -3.04E2
680 2150 1
684 2150 1
1216 2150 -3.04E2
1257 2150 -3.04E2
680 2151 1
685 2151 1
1219 2151 -3.04E2
1260 2151 -3.04E2
680 2152 1
681 2152 1
1223 2152 -3.04E2
1264 2152 -3.04E2
680 2153 1
686 2153 1
1228 2153 -3.04E2
1269 2153 -3.04E2
680 2154 1
688 2154 1
1237 2154 -3.04E2
1278 2154 -3.04E2
680 2155 1
689 2155 1
1245 2155 -3.04E2
1286 2155 -3.04E2
680 2156 1
682 2156 1
1212 2156 -3.04E2
1253 2156 -3.04E2
680 2157 1
683 2157 1
1213 2157 -3.04E2
1254 2157 -3.04E2
681 2158 1
682 2158 -1
1221 2158 -3.04E2
1262 2158 -3.04E2
681 2159 1
683 2159 -1
1222 2159 -3.04E2
1263 2159 -3.04E2
681 2160 1
684 2160 -1
1224 2160 -3.04E2
1265 2160 -3.04E2
681 2161 1
685 2161 -1
1225 2161 -3.04E2
1266 2161 -3.04E2
681 2162 1
686 2162 -1
1231 2162 -3.04E2
1272 2162 -3.04E2
681 2163 1
687 2163 -1
1234 2163 -3.04E2
1275 2163 -3.04E2
681 2164 1
688 2164 -1
1240 2164 -3.04E2
1281 2164 -3.04E2
681 2165 1
689 2165 -1
1248 2165 -3.04E2
1289 2165 -3.04E2
682 2166 1
683 2166 -1
1211 2166 -3.04E2
1252 2166 -3.04E2
682 2167 1
684 2167 -1
1214 2167 -3.04E2
1255 2167 -3.04E2
682 2168 1
685 2168 -1
1217 2168 -3.04E2
1258 2168 -3.04E2
682 2169 1
686 2169 -1
1226 2169 -3.04E2
1267 2169 -3.04E2
682 2170 1
687 2170 -1
1232 2170 -3.04E2
1273 2170 -3.04E2
682 2171 1
688 2171 -1
1236 2171 -3.04E2
1277 2171 -3.04E2
682 2172 1
689 2172 -1
1243 2172 -3.04E2
1284 2172 -3.04E2
682 2173 -1
683 2173 1
1211 2173 -3.04E2
1252 2173 -3.04E2
682 2174 -1
684 2174 1
1214 2174 -3.04E2
1255 2174 -3.04E2
682 2175 -1
685 2175 1
1217 2175 -3.04E2
1258 2175 -3.04E2
682 2176 -1
686 2176 1
1226 2176 -3.04E2
1267 2176 -3.04E2
682 2177 -1
687 2177 1
1232 2177 -3.04E2
1273 2177 -3.04E2
682 2178 -1
688 2178 1
1236 2178 -3.04E2
1277 2178 -3.04E2
682 2179 -1
689 2179 1
1243 2179 -3.04E2
1284 2179 -3.04E2
683 2180 1
684 2180 -1
1215 2180 -3.04E2
1256 2180 -3.04E2
683 2181 1
685 2181 -1
1218 2181 -3.04E2
1259 2181 -3.04E2
683 2182 1
686 2182 -1
1227 2182 -3.04E2
1268 2182 -3.04E2
683 2183 1
689 2183 -1
1244 2183 -3.04E2
1285 2183 -3.04E2
683 2184 -1
684 2184 1
1215 2184 -3.04E2
1256 2184 -3.04E2
683 2185 -1
685 2185 1
1218 2185 -3.04E2
1259 2185 -3.04E2
683 2186 -1
686 2186 1
1227 2186 -3.04E2
1268 2186 -3.04E2
683 2187 -1
689 2187 1
1244 2187 -3.04E2
1285 2187 -3.04E2
684 2188 1
685 2188 -1
1220 2188 -3.04E2
1261 2188 -3.04E2
684 2189 1
686 2189 -1
1229 2189 -3.04E2
1270 2189 -3.04E2
684 2190 1
688 2190 -1
1238 2190 -3.04E2
1279 2190 -3.04E2
684 2191 1
689 2191 -1
1246 2191 -3.04E2
1287 2191 -3.04E2
684 2192 -1
685 2192 1
1220 2192 -3.04E2
1261 2192 -3.04E2
684 2193 -1
686 2193 1
1229 2193 -3.04E2
1270 2193 -3.04E2
684 2194 -1
688 2194 1
1238 2194 -3.04E2
1279 2194 -3.04E2
684 2195 -1
689 2195 1
1246 2195 -3.04E2
1287 2195 -3.04E2
685 2196 1
686 2196 -1
1230 2196 -3.04E2
1271 2196 -3.04E2
685 2197 1
687 2197 -1
1233 2197 -3.04E2
1274 2197 -3.04E2
685 2198 1
688 2198 -1
1239 2198 -3.04E2
1280 2198 -3.04E2
685 2199 1
689 2199 -1
1247 2199 -3.04E2
1288 2199 -3.04E2
685 2200 -1
686 2200 1
1230 2200 -3.04E2
1271 2200 -3.04E2
685 2201 -1
687 2201 1
1233 2201 -3.04E2
1274 2201 -3.04E2
685 2202 -1
688 2202 1
1239 2202 -3.04E2
1280 2202 -3.04E2
685 2203 -1
689 2203 1
1247 2203 -3.04E2
1288 2203 -3.04E2
686 2204 1
687 2204 -1
1235 2204 -3.04E2
1276 2204 -3.04E2
686 2205 1
688 2205 -1
1241 2205 -3.04E2
1282 2205 -3.04E2
686 2206 1
689 2206 -1
1249 2206 -3.04E2
1290 2206 -3.04E2
686 2207 -1
687 2207 1
1235 2207 -3.04E2
1276 2207 -3.04E2
686 2208 -1
688 2208 1
1241 2208 -3.04E2
1282 2208 -3.04E2
686 2209 -1
689 2209 1
1249 2209 -3.04E2
1290 2209 -3.04E2
687 2210 1
688 2210 -1
1242 2210 -3.04E2
1283 2210 -3.04E2
687 2211 1
689 2211 -1
1250 2211 -3.04E2
1291 2211 -3.04E2
687 2212 -1
688 2212 1
1242 2212 -3.04E2
1283 2212 -3.04E2
687 2213 -1
689 2213 1
1250 2213 -3.04E2
1291 2213 -3.04E2
688 2214 1
689 2214 -1
1251 2214 -3.04E2
1292 2214 -3.04E2
688 2215 -1
689 2215 1
1251 2215 -3.04E2
1292 2215 -3.04E2
690 2216 1
1220 2216 -1.48E2
1261 2216 -1.48E2
691 2217 1
1224 2217 -1.48E2
1265 2217 -1.48E2
692 2218 1
1229 2218 -1.48E2
1270 2218 -1.48E2
693 2219 1
1238 2219 -1.48E2
1279 2219 -1.48E2
694 2220 1
1243 2220 -1.48E2
1284 2220 -1.48E2
695 2221 1
1244 2221 -1.48E2
1285 2221 -1.48E2
696 2222 1
1245 2222 -1.48E2
1286 2222 -1.48E2
697 2223 1
1246 2223 -1.48E2
1287 2223 -1.48E2
698 2224 1
1247 2224 -1.48E2
1288 2224 -1.48E2
699 2225 1
1248 2225 -1.48E2
1289 2225 -1.48E2
700 2226 1
1249 2226 -1.48E2
1290 2226 -1.48E2
701 2227 1
1250 2227 -1.48E2
1291 2227 -1.48E2
702 2228 1
1251 2228 -1.48E2
1292 2228 -1.48E2
703 2229 1
1214 2229 -1.48E2
1255 2229 -1.48E2
704 2230 1
1215 2230 -1.48E2
1256 2230 -1.48E2
705 2231 1
1216 2231 -1.48E2
1257 2231 -1.48E2
706 2232 1
708 2232 1
1243 2232 -1.48E2
1284 2232 -1.48E2
706 2233 1
709 2233 1
1244 2233 -1.48E2
1285 2233 -1.48E2
706 2234 1
710 2234 1
1245 2234 -1.48E2
1286 2234 -1.48E2
706 2235 1
707 2235 1
1246 2235 -1.48E2
1287 2235 -1.48E2
706 2236 1
711 2236 1
1247 2236 -1.48E2
1288 2236 -1.48E2
706 2237 1
712 2237 1
1248 2237 -1.48E2
1289 2237 -1.48E2
706 2238 1
713 2238 1
1249 2238 -1.48E2
1290 2238 -1.48E2
706 2239 1
714 2239 1
1250 2239 -1.48E2
1291 2239 -1.48E2
706 2240 1
715 2240 1
1251 2240 -1.48E2
1292 2240 -1.48E2
707 2241 1
708 2241 -1
1214 2241 -1.48E2
1255 2241 -1.48E2
707 2242 1
709 2242 -1
1215 2242 -1.48E2
1256 2242 -1.48E2
707 2243 1
710 2243 -1
1216 2243 -1.48E2
1257 2243 -1.48E2
707 2244 1
711 2244 -1
1220 2244 -1.48E2
1261 2244 -1.48E2
707 2245 1
712 2245 -1
1224 2245 -1.48E2
1265 2245 -1.48E2
707 2246 1
713 2246 -1
1229 2246 -1.48E2
1270 2246 -1.48E2
707 2247 1
715 2247 -1
1238 2247 -1.48E2
1279 2247 -1.48E2
708 2248 1
709 2248 -1
1211 2248 -1.48E2
1252 2248 -1.48E2
708 2249 1
710 2249 -1
1212 2249 -1.48E2
1253 2249 -1.48E2
708 2250 1
711 2250 -1
1217 2250 -1.48E2
1258 2250 -1.48E2
708 2251 1
712 2251 -1
1221 2251 -1.48E2
1262 2251 -1.48E2
708 2252 1
713 2252 -1
1226 2252 -1.48E2
1267 2252 -1.48E2
708 2253 1
714 2253 -1
1232 2253 -1.48E2
1273 2253 -1.48E2
708 2254 1
715 2254 -1
1236 2254 -1.48E2
1277 2254 -1.48E2
708 2255 -1
709 2255 1
1211 2255 -1.48E2
1252 2255 -1.48E2
708 2256 -1
710 2256 1
1212 2256 -1.48E2
1253 2256 -1.48E2
708 2257 -1
711 2257 1
1217 2257 -1.48E2
1258 2257 -1.48E2
708 2258 -1
712 2258 1
1221 2258 -1.48E2
1262 2258 -1.48E2
708 2259 -1
713 2259 1
1226 2259 -1.48E2
1267 2259 -1.48E2
708 2260 -1
714 2260 1
1232 2260 -1.48E2
1273 2260 -1.48E2
708 2261 -1
715 2261 1
1236 2261 -1.48E2
1277 2261 -1.48E2
709 2262 1
710 2262 -1
1213 2262 -1.48E2
1254 2262 -1.48E2
709 2263 1
711 2263 -1
1218 2263 -1.48E2
1259 2263 -1.48E2
709 2264 1
712 2264 -1
1222 2264 -1.48E2
1263 2264 -1.48E2
709 2265 1
713 2265 -1
1227 2265 -1.48E2
1268 2265 -1.48E2
709 2266 -1
710 2266 1
1213 2266 -1.48E2
1254 2266 -1.48E2
709 2267 -1
711 2267 1
1218 2267 -1.48E2
1259 2267 -1.48E2
709 2268 -1
712 2268 1
1222 2268 -1.48E2
1263 2268 -1.48E2
709 2269 -1
713 2269 1
1227 2269 -1.48E2
1268 2269 -1.48E2
710 2270 1
711 2270 -1
1219 2270 -1.48E2
1260 2270 -1.48E2
710 2271 1
712 2271 -1
1223 2271 -1.48E2
1264 2271 -1.48E2
710 2272 1
713 2272 -1
1228 2272 -1.48E2
1269 2272 -1.48E2
710 2273 1
715 2273 -1
1237 2273 -1.48E2
1278 2273 -1.48E2
710 2274 -1
711 2274 1
1219 2274 -1.48E2
1260 2274 -1.48E2
710 2275 -1
712 2275 1
1223 2275 -1.48E2
1264 2275 -1.48E2
710 2276 -1
713 2276 1
1228 2276 -1.48E2
1269 2276 -1.48E2
710 2277 -1
715 2277 1
1237 2277 -1.48E2
1278 2277 -1.48E2
711 2278 1
712 2278 -1
1225 2278 -1.48E2
1266 2278 -1.48E2
711 2279 1
713 2279 -1
1230 2279 -1.48E2
1271 2279 -1.48E2
711 2280 1
714 2280 -1
1233 2280 -1.48E2
1274 2280 -1.48E2
711 2281 1
715 2281 -1
1239 2281 -1.48E2
1280 2281 -1.48E2
711 2282 -1
712 2282 1
1225 2282 -1.48E2
1266 2282 -1.48E2
711 2283 -1
713 2283 1
1230 2283 -1.48E2
1271 2283 -1.48E2
711 2284 -1
714 2284 1
1233 2284 -1.48E2
1274 2284 -1.48E2
711 2285 -1
715 2285 1
1239 2285 -1.48E2
1280 2285 -1.48E2
712 2286 1
713 2286 -1
1231 2286 -1.48E2
1272 2286 -1.48E2
712 2287 1
714 2287 -1
1234 2287 -1.48E2
1275 2287 -1.48E2
712 2288 1
715 2288 -1
1240 2288 -1.48E2
1281 2288 -1.48E2
712 2289 -1
713 2289 1
1231 2289 -1.48E2
1272 2289 -1.48E2
712 2290 -1
714 2290 1
1234 2290 -1.48E2
1275 2290 -1.48E2
712 2291 -1
715 2291 1
1240 2291 -1.48E2
1281 2291 -1.48E2
713 2292 1
714 2292 -1
1235 2292 -1.48E2
1276 2292 -1.48E2
713 2293 1
715 2293 -1
1241 2293 -1.48E2
1282 2293 -1.48E2
713 2294 -1
714 2294 1
1235 2294 -1.48E2
1276 2294 -1.48E2
713 2295 -1
715 2295 1
1241 2295 -1.48E2
1282 2295 -1.48E2
714 2296 1
715 2296 -1
1242 2296 -1.48E2
1283 2296 -1.48E2
714 2297 -1
715 2297 1
1242 2297 -1.48E2
1283 2297 -1.48E2
716 2298 1
1212 2298 -4.26E2
1253 2298 -4.26E2
717 2299 1
1213 2299 -4.26E2
1254 2299 -4.26E2
718 2300 1
1235 2300 -4.26E2
1276 2300 -4.26E2
719 2301 1
1241 2301 -4.26E2
1282 2301 -4.26E2
720 2302 1
1249 2302 -4.26E2
1290 2302 -4.26E2
721 2303 1
1216 2303 -4.26E2
1257 2303 -4.26E2
722 2304 1
1219 2304 -4.26E2
1260 2304 -4.26E2
723 2305 1
1223 2305 -4.26E2
1264 2305 -4.26E2
724 2306 1
1226 2306 -4.26E2
1267 2306 -4.26E2
725 2307 1
1227 2307 -4.26E2
1268 2307 -4.26E2
726 2308 1
1228 2308 -4.26E2
1269 2308 -4.26E2
727 2309 1
1229 2309 -4.26E2
1270 2309 -4.26E2
728 2310 1
1230 2310 -4.26E2
1271 2310 -4.26E2
729 2311 1
1231 2311 -4.26E2
1272 2311 -4.26E2
730 2312 1
1237 2312 -4.26E2
1278 2312 -4.26E2
731 2313 1
1245 2313 -4.26E2
1286 2313 -4.26E2
732 2314 1
736 2314 1
1216 2314 -4.26E2
1257 2314 -4.26E2
732 2315 1
737 2315 1
1219 2315 -4.26E2
1260 2315 -4.26E2
732 2316 1
738 2316 1
1223 2316 -4.26E2
1264 2316 -4.26E2
732 2317 1
733 2317 1
1228 2317 -4.26E2
1269 2317 -4.26E2
732 2318 1
740 2318 1
1237 2318 -4.26E2
1278 2318 -4.26E2
732 2319 1
741 2319 1
1245 2319 -4.26E2
1286 2319 -4.26E2
732 2320 1
734 2320 1
1212 2320 -4.26E2
1253 2320 -4.26E2
732 2321 1
735 2321 1
1213 2321 -4.26E2
1254 2321 -4.26E2
733 2322 1
734 2322 -1
1226 2322 -4.26E2
1267 2322 -4.26E2
733 2323 1
735 2323 -1
1227 2323 -4.26E2
1268 2323 -4.26E2
733 2324 1
736 2324 -1
1229 2324 -4.26E2
1270 2324 -4.26E2
733 2325 1
737 2325 -1
1230 2325 -4.26E2
1271 2325 -4.26E2
733 2326 1
738 2326 -1
1231 2326 -4.26E2
1272 2326 -4.26E2
733 2327 1
739 2327 -1
1235 2327 -4.26E2
1276 2327 -4.26E2
733 2328 1
740 2328 -1
1241 2328 -4.26E2
1282 2328 -4.26E2
733 2329 1
741 2329 -1
1249 2329 -4.26E2
1290 2329 -4.26E2
734 2330 1
735 2330 -1
1211 2330 -4.26E2
1252 2330 -4.26E2
734 2331 1
736 2331 -1
1214 2331 -4.26E2
1255 2331 -4.26E2
734 2332 1
737 2332 -1
1217 2332 -4.26E2
1258 2332 -4.26E2
734 2333 1
738 2333 -1
1221 2333 -4.26E2
1262 2333 -4.26E2
734 2334 1
739 2334 -1
1232 2334 -4.26E2
1273 2334 -4.26E2
734 2335 1
740 2335 -1
1236 2335 -4.26E2
1277 2335 -4.26E2
734 2336 1
741 2336 -1
1243 2336 -4.26E2
1284 2336 -4.26E2
734 2337 -1
735 2337 1
1211 2337 -4.26E2
1252 2337 -4.26E2
734 2338 -1
736 2338 1
1214 2338 -4.26E2
1255 2338 -4.26E2
734 2339 -1
737 2339 1
1217 2339 -4.26E2
1258 2339 -4.26E2
734 2340 -1
738 2340 1
1221 2340 -4.26E2
1262 2340 -4.26E2
734 2341 -1
739 2341 1
1232 2341 -4.26E2
1273 2341 -4.26E2
734 2342 -1
740 2342 1
1236 2342 -4.26E2
1277 2342 -4.26E2
734 2343 -1
741 2343 1
1243 2343 -4.26E2
1284 2343 -4.26E2
735 2344 1
736 2344 -1
1215 2344 -4.26E2
1256 2344 -4.26E2
735 2345 1
737 2345 -1
1218 2345 -4.26E2
1259 2345 -4.26E2
735 2346 1
738 2346 -1
1222 2346 -4.26E2
1263 2346 -4.26E2
735 2347 1
741 2347 -1
1244 2347 -4.26E2
1285 2347 -4.26E2
735 2348 -1
736 2348 1
1215 2348 -4.26E2
1256 2348 -4.26E2
735 2349 -1
737 2349 1
1218 2349 -4.26E2
1259 2349 -4.26E2
735 2350 -1
738 2350 1
1222 2350 -4.26E2
1263 2350 -4.26E2
735 2351 -1
741 2351 1
1244 2351 -4.26E2
1285 2351 -4.26E2
736 2352 1
737 2352 -1
1220 2352 -4.26E2
1261 2352 -4.26E2
736 2353 1
738 2353 -1
1224 2353 -4.26E2
1265 2353 -4.26E2
736 2354 1
740 2354 -1
1238 2354 -4.26E2
1279 2354 -4.26E2
736 2355 1
741 2355 -1
1246 2355 -4.26E2
1287 2355 -4.26E2
736 2356 -1
737 2356 1
1220 2356 -4.26E2
1261 2356 -4.26E2
736 2357 -1
738 2357 1
1224 2357 -4.26E2
1265 2357 -4.26E2
736 2358 -1
740 2358 1
1238 2358 -4.26E2
1279 2358 -4.26E2
736 2359 -1
741 2359 1
1246 2359 -4.26E2
1287 2359 -4.26E2
737 2360 1
738 2360 -1
1225 2360 -4.26E2
1266 2360 -4.26E2
737 2361 1
739 2361 -1
1233 2361 -4.26E2
1274 2361 -4.26E2
737 2362 1
740 2362 -1
1239 2362 -4.26E2
1280 2362 -4.26E2
737 2363 1
741 2363 -1
1247 2363 -4.26E2
1288 2363 -4.26E2
737 2364 -1
738 2364 1
1225 2364 -4.26E2
1266 2364 -4.26E2
737 2365 -1
739 2365 1
1233 2365 -4.26E2
1274 2365 -4.26E2
737 2366 -1
740 2366 1
1239 2366 -4.26E2
1280 2366 -4.26E2
737 2367 -1
741 2367 1
1247 2367 -4.26E2
1288 2367 -4.26E2
738 2368 1
739 2368 -1
1234 2368 -4.26E2
1275 2368 -4.26E2
738 2369 1
740 2369 -1
1240 2369 -4.26E2
1281 2369 -4.26E2
738 2370 1
741 2370 -1
1248 2370 -4.26E2
1289 2370 -4.26E2
738 2371 -1
739 2371 1
1234 2371 -4.26E2
1275 2371 -4.26E2
738 2372 -1
740 2372 1
1240 2372 -4.26E2
1281 2372 -4.26E2
738 2373 -1
741 2373 1
1248 2373 -4.26E2
1289 2373 -4.26E2
739 2374 1
740 2374 -1
1242 2374 -4.26E2
1283 2374 -4.26E2
739 2375 1
741 2375 -1
1250 2375 -4.26E2
1291 2375 -4.26E2
739 2376 -1
740 2376 1
1242 2376 -4.26E2
1283 2376 -4.26E2
739 2377 -1
741 2377 1
1250 2377 -4.26E2
1291 2377 -4.26E2
740 2378 1
741 2378 -1
1251 2378 -4.26E2
1292 2378 -4.26E2
740 2379 -1
741 2379 1
1251 2379 -4.26E2
1292 2379 -4.26E2
742 2380 1
1220 2380 -1.153E3
1261 2380 -1.153E3
743 2381 1
1224 2381 -1.153E3
1265 2381 -1.153E3
744 2382 1
1229 2382 -1.153E3
1270 2382 -1.153E3
745 2383 1
1232 2383 -1.153E3
1273 2383 -1.153E3
746 2384 1
1233 2384 -1.153E3
1274 2384 -1.153E3
747 2385 1
1234 2385 -1.153E3
1275 2385 -1.153E3
748 2386 1
1235 2386 -1.153E3
1276 2386 -1.153E3
749 2387 1
1238 2387 -1.153E3
1279 2387 -1.153E3
750 2388 1
1246 2388 -1.153E3
1287 2388 -1.153E3
751 2389 1
1214 2389 -1.153E3
1255 2389 -1.153E3
752 2390 1
1215 2390 -1.153E3
1256 2390 -1.153E3
753 2391 1
1216 2391 -1.153E3
1257 2391 -1.153E3
754 2392 1
1242 2392 -1.153E3
1283 2392 -1.153E3
755 2393 1
1250 2393 -1.153E3
1291 2393 -1.153E3
756 2394 1
764 2394 1
1242 2394 -1.153E3
1283 2394 -1.153E3
756 2395 1
765 2395 1
1250 2395 -1.153E3
1291 2395 -1.153E3
756 2396 1
758 2396 1
1232 2396 -1.153E3
1273 2396 -1.153E3
756 2397 1
761 2397 1
1233 2397 -1.153E3
1274 2397 -1.153E3
756 2398 1
762 2398 1
1234 2398 -1.153E3
1275 2398 -1.153E3
756 2399 1
763 2399 1
1235 2399 -1.153E3
1276 2399 -1.153E3
757 2400 1
758 2400 -1
1214 2400 -1.153E3
1255 2400 -1.153E3
757 2401 1
759 2401 -1
1215 2401 -1.153E3
1256 2401 -1.153E3
757 2402 1
760 2402 -1
1216 2402 -1.153E3
1257 2402 -1.153E3
757 2403 1
761 2403 -1
1220 2403 -1.153E3
1261 2403 -1.153E3
757 2404 1
762 2404 -1
1224 2404 -1.153E3
1265 2404 -1.153E3
757 2405 1
763 2405 -1
1229 2405 -1.153E3
1270 2405 -1.153E3
757 2406 1
764 2406 -1
1238 2406 -1.153E3
1279 2406 -1.153E3
757 2407 1
765 2407 -1
1246 2407 -1.153E3
1287 2407 -1.153E3
758 2408 1
759 2408 -1
1211 2408 -1.153E3
1252 2408 -1.153E3
758 2409 1
760 2409 -1
1212 2409 -1.153E3
1253 2409 -1.153E3
758 2410 1
761 2410 -1
1217 2410 -1.153E3
1258 2410 -1.153E3
758 2411 1
762 2411 -1
1221 2411 -1.153E3
1262 2411 -1.153E3
758 2412 1
763 2412 -1
1226 2412 -1.153E3
1267 2412 -1.153E3
758 2413 1
764 2413 -1
1236 2413 -1.153E3
1277 2413 -1.153E3
758 2414 1
765 2414 -1
1243 2414 -1.153E3
1284 2414 -1.153E3
758 2415 -1
759 2415 1
1211 2415 -1.153E3
1252 2415 -1.153E3
758 2416 -1
760 2416 1
1212 2416 -1.153E3
1253 2416 -1.153E3
758 2417 -1
761 2417 1
1217 2417 -1.153E3
1258 2417 -1.153E3
758 2418 -1
762 2418 1
1221 2418 -1.153E3
1262 2418 -1.153E3
758 2419 -1
763 2419 1
1226 2419 -1.153E3
1267 2419 -1.153E3
758 2420 -1
764 2420 1
1236 2420 -1.153E3
1277 2420 -1.153E3
758 2421 -1
765 2421 1
1243 2421 -1.153E3
1284 2421 -1.153E3
759 2422 1
760 2422 -1
1213 2422 -1.153E3
1254 2422 -1.153E3
759 2423 1
761 2423 -1
1218 2423 -1.153E3
1259 2423 -1.153E3
759 2424 1
762 2424 -1
1222 2424 -1.153E3
1263 2424 -1.153E3
759 2425 1
763 2425 -1
1227 2425 -1.153E3
1268 2425 -1.153E3
759 2426 1
765 2426 -1
1244 2426 -1.153E3
1285 2426 -1.153E3
759 2427 -1
760 2427 1
1213 2427 -1.153E3
1254 2427 -1.153E3
759 2428 -1
761 2428 1
1218 2428 -1.153E3
1259 2428 -1.153E3
759 2429 -1
762 2429 1
1222 2429 -1.153E3
1263 2429 -1.153E3
759 2430 -1
763 2430 1
1227 2430 -1.153E3
1268 2430 -1.153E3
759 2431 -1
765 2431 1
1244 2431 -1.153E3
1285 2431 -1.153E3
760 2432 1
761 2432 -1
1219 2432 -1.153E3
1260 2432 -1.153E3
760 2433 1
762 2433 -1
1223 2433 -1.153E3
1264 2433 -1.153E3
760 2434 1
763 2434 -1
1228 2434 -1.153E3
1269 2434 -1.153E3
760 2435 1
764 2435 -1
1237 2435 -1.153E3
1278 2435 -1.153E3
760 2436 1
765 2436 -1
1245 2436 -1.153E3
1286 2436 -1.153E3
760 2437 -1
761 2437 1
1219 2437 -1.153E3
1260 2437 -1.153E3
760 2438 -1
762 2438 1
1223 2438 -1.153E3
1264 2438 -1.153E3
760 2439 -1
763 2439 1
1228 2439 -1.153E3
1269 2439 -1.153E3
760 2440 -1
764 2440 1
1237 2440 -1.153E3
1278 2440 -1.153E3
760 2441 -1
765 2441 1
1245 2441 -1.153E3
1286 2441 -1.153E3
761 2442 1
762 2442 -1
1225 2442 -1.153E3
1266 2442 -1.153E3
761 2443 1
763 2443 -1
1230 2443 -1.153E3
1271 2443 -1.153E3
761 2444 1
764 2444 -1
1239 2444 -1.153E3
1280 2444 -1.153E3
761 2445 1
765 2445 -1
1247 2445 -1.153E3
1288 2445 -1.153E3
761 2446 -1
762 2446 1
1225 2446 -1.153E3
1266 2446 -1.153E3
761 2447 -1
763 2447 1
1230 2447 -1.153E3
1271 2447 -1.153E3
761 2448 -1
764 2448 1
1239 2448 -1.153E3
1280 2448 -1.153E3
761 2449 -1
765 2449 1
1247 2449 -1.153E3
1288 2449 -1.153E3
762 2450 1
763 2450 -1
1231 2450 -1.153E3
1272 2450 -1.153E3
762 2451 1
764 2451 -1
1240 2451 -1.153E3
1281 2451 -1.153E3
762 2452 1
765 2452 -1
1248 2452 -1.153E3
1289 2452 -1.153E3
762 2453 -1
763 2453 1
1231 2453 -1.153E3
1272 2453 -1.153E3
762 2454 -1
764 2454 1
1240 2454 -1.153E3
1281 2454 -1.153E3
762 2455 -1
765 2455 1
1248 2455 -1.153E3
1289 2455 -1.153E3
763 2456 1
764 2456 -1
1241 2456 -1.153E3
1282 2456 -1.153E3
763 2457 1
765 2457 -1
1249 2457 -1.153E3
1290 2457 -1.153E3
763 2458 -1
764 2458 1
1241 2458 -1.153E3
1282 2458 -1.153E3
763 2459 -1
765 2459 1
1249 2459 -1.153E3
1290 2459 -1.153E3
764 2460 1
765 2460 -1
1251 2460 -1.153E3
1292 2460 -1.153E3
764 2461 -1
765 2461 1
1251 2461 -1.153E3
1292 2461 -1.153E3
766 2462 1
1212 2462 -8.649E3
1253 2462 -8.649E3
767 2463 1
1213 2463 -8.649E3
1254 2463 -8.649E3
768 2464 1
1242 2464 -8.649E3
1283 2464 -8.649E3
769 2465 1
1250 2465 -8.649E3
1291 2465 -8.649E3
770 2466 1
1216 2466 -8.649E3
1257 2466 -8.649E3
771 2467 1
1219 2467 -8.649E3
1260 2467 -8.649E3
772 2468 1
1223 2468 -8.649E3
1264 2468 -8.649E3
773 2469 1
1228 2469 -8.649E3
1269 2469 -8.649E3
774 2470 1
1232 2470 -8.649E3
1273 2470 -8.649E3
775 2471 1
1233 2471 -8.649E3
1274 2471 -8.649E3
776 2472 1
1234 2472 -8.649E3
1275 2472 -8.649E3
777 2473 1
1235 2473 -8.649E3
1276 2473 -8.649E3
778 2474 1
1237 2474 -8.649E3
1278 2474 -8.649E3
779 2475 1
1245 2475 -8.649E3
1286 2475 -8.649E3
780 2476 1
784 2476 1
1216 2476 -8.649E3
1257 2476 -8.649E3
780 2477 1
785 2477 1
1219 2477 -8.649E3
1260 2477 -8.649E3
780 2478 1
786 2478 1
1223 2478 -8.649E3
1264 2478 -8.649E3
780 2479 1
787 2479 1
1228 2479 -8.649E3
1269 2479 -8.649E3
780 2480 1
788 2480 1
1237 2480 -8.649E3
1278 2480 -8.649E3
780 2481 1
789 2481 1
1245 2481 -8.649E3
1286 2481 -8.649E3
780 2482 1
782 2482 1
1212 2482 -8.649E3
1253 2482 -8.649E3
780 2483 1
783 2483 1
1213 2483 -8.649E3
1254 2483 -8.649E3
781 2484 1
782 2484 -1
1232 2484 -8.649E3
1273 2484 -8.649E3
781 2485 1
785 2485 -1
1233 2485 -8.649E3
1274 2485 -8.649E3
781 2486 1
786 2486 -1
1234 2486 -8.649E3
1275 2486 -8.649E3
781 2487 1
787 2487 -1
1235 2487 -8.649E3
1276 2487 -8.649E3
781 2488 1
788 2488 -1
1242 2488 -8.649E3
1283 2488 -8.649E3
781 2489 1
789 2489 -1
1250 2489 -8.649E3
1291 2489 -8.649E3
782 2490 1
783 2490 -1
1211 2490 -8.649E3
1252 2490 -8.649E3
782 2491 1
784 2491 -1
1214 2491 -8.649E3
1255 2491 -8.649E3
782 2492 1
785 2492 -1
1217 2492 -8.649E3
1258 2492 -8.649E3
782 2493 1
786 2493 -1
1221 2493 -8.649E3
1262 2493 -8.649E3
782 2494 1
787 2494 -1
1226 2494 -8.649E3
1267 2494 -8.649E3
782 2495 1
788 2495 -1
1236 2495 -8.649E3
1277 2495 -8.649E3
782 2496 1
789 2496 -1
1243 2496 -8.649E3
1284 2496 -8.649E3
782 2497 -1
783 2497 1
1211 2497 -8.649E3
1252 2497 -8.649E3
782 2498 -1
784 2498 1
1214 2498 -8.649E3
1255 2498 -8.649E3
782 2499 -1
785 2499 1
1217 2499 -8.649E3
1258 2499 -8.649E3
782 2500 -1
786 2500 1
1221 2500 -8.649E3
1262 2500 -8.649E3
782 2501 -1
787 2501 1
1226 2501 -8.649E3
1267 2501 -8.649E3
782 2502 -1
788 2502 1
1236 2502 -8.649E3
1277 2502 -8.649E3
782 2503 -1
789 2503 1
1243 2503 -8.649E3
1284 2503 -8.649E3
783 2504 1
784 2504 -1
1215 2504 -8.649E3
1256 2504 -8.649E3
783 2505 1
785 2505 -1
1218 2505 -8.649E3
1259 2505 -8.649E3
783 2506 1
786 2506 -1
1222 2506 -8.649E3
1263 2506 -8.649E3
783 2507 1
787 2507 -1
1227 2507 -8.649E3
1268 2507 -8.649E3
783 2508 1
789 2508 -1
1244 2508 -8.649E3
1285 2508 -8.649E3
783 2509 -1
784 2509 1
1215 2509 -8.649E3
1256 2509 -8.649E3
783 2510 -1
785 2510 1
1218 2510 -8.649E3
1259 2510 -8.649E3
783 2511 -1
786 2511 1
1222 2511 -8.649E3
1263 2511 -8.649E3
783 2512 -1
787 2512 1
1227 2512 -8.649E3
1268 2512 -8.649E3
783 2513 -1
789 2513 1
1244 2513 -8.649E3
1285 2513 -8.649E3
784 2514 1
785 2514 -1
1220 2514 -8.649E3
1261 2514 -8.649E3
784 2515 1
786 2515 -1
1224 2515 -8.649E3
1265 2515 -8.649E3
784 2516 1
787 2516 -1
1229 2516 -8.649E3
1270 2516 -8.649E3
784 2517 1
788 2517 -1
1238 2517 -8.649E3
1279 2517 -8.649E3
784 2518 1
789 2518 -1
1246 2518 -8.649E3
1287 2518 -8.649E3
784 2519 -1
785 2519 1
1220 2519 -8.649E3
1261 2519 -8.649E3
784 2520 -1
786 2520 1
1224 2520 -8.649E3
1265 2520 -8.649E3
784 2521 -1
787 2521 1
1229 2521 -8.649E3
1270 2521 -8.649E3
784 2522 -1
788 2522 1
1238 2522 -8.649E3
1279 2522 -8.649E3
784 2523 -1
789 2523 1
1246 2523 -8.649E3
1287 2523 -8.649E3
785 2524 1
786 2524 -1
1225 2524 -8.649E3
1266 2524 -8.649E3
785 2525 1
787 2525 -1
1230 2525 -8.649E3
1271 2525 -8.649E3
785 2526 1
788 2526 -1
1239 2526 -8.649E3
1280 2526 -8.649E3
785 2527 1
789 2527 -1
1247 2527 -8.649E3
1288 2527 -8.649E3
785 2528 -1
786 2528 1
1225 2528 -8.649E3
1266 2528 -8.649E3
785 2529 -1
787 2529 1
1230 2529 -8.649E3
1271 2529 -8.649E3
785 2530 -1
788 2530 1
1239 2530 -8.649E3
1280 2530 -8.649E3
785 2531 -1
789 2531 1
1247 2531 -8.649E3
1288 2531 -8.649E3
786 2532 1
787 2532 -1
1231 2532 -8.649E3
1272 2532 -8.649E3
786 2533 1
788 2533 -1
1240 2533 -8.649E3
1281 2533 -8.649E3
786 2534 1
789 2534 -1
1248 2534 -8.649E3
1289 2534 -8.649E3
786 2535 -1
787 2535 1
1231 2535 -8.649E3
1272 2535 -8.649E3
786 2536 -1
788 2536 1
1240 2536 -8.649E3
1281 2536 -8.649E3
786 2537 -1
789 2537 1
1248 2537 -8.649E3
1289 2537 -8.649E3
787 2538 1
788 2538 -1
1241 2538 -8.649E3
1282 2538 -8.649E3
787 2539 1
789 2539 -1
1249 2539 -8.649E3
1290 2539 -8.649E3
787 2540 -1
788 2540 1
1241 2540 -8.649E3
1282 2540 -8.649E3
787 2541 -1
789 2541 1
1249 2541 -8.649E3
1290 2541 -8.649E3
788 2542 1
789 2542 -1
1251 2542 -8.649E3
1292 2542 -8.649E3
788 2543 -1
789 2543 1
1251 2543 -8.649E3
1292 2543 -8.649E3
790 2544 1
1220 2544 -1.194E3
1261 2544 -1.194E3
791 2545 1
1221 2545 -1.194E3
1262 2545 -1.194E3
792 2546 1
1222 2546 -1.194E3
1263 2546 -1.194E3
793 2547 1
1223 2547 -1.194E3
1264 2547 -1.194E3
794 2548 1
1224 2548 -1.194E3
1265 2548 -1.194E3
795 2549 1
1225 2549 -1.194E3
1266 2549 -1.194E3
796 2550 1
1229 2550 -1.194E3
1270 2550 -1.194E3
797 2551 1
1238 2551 -1.194E3
1279 2551 -1.194E3
798 2552 1
1246 2552 -1.194E3
1287 2552 -1.194E3
799 2553 1
1214 2553 -1.194E3
1255 2553 -1.194E3
800 2554 1
1215 2554 -1.194E3
1256 2554 -1.194E3
801 2555 1
1216 2555 -1.194E3
1257 2555 -1.194E3
802 2556 1
1231 2556 -1.194E3
1272 2556 -1.194E3
803 2557 1
1234 2557 -1.194E3
1275 2557 -1.194E3
804 2558 1
1240 2558 -1.194E3
1281 2558 -1.194E3
805 2559 1
1248 2559 -1.194E3
1289 2559 -1.194E3
806 2560 1
812 2560 1
1231 2560 -1.194E3
1272 2560 -1.194E3
806 2561 1
813 2561 1
1234 2561 -1.194E3
1275 2561 -1.194E3
806 2562 1
814 2562 1
1240 2562 -1.194E3
1281 2562 -1.194E3
806 2563 1
815 2563 1
1248 2563 -1.194E3
1289 2563 -1.194E3
806 2564 1
808 2564 1
1221 2564 -1.194E3
1262 2564 -1.194E3
806 2565 1
809 2565 1
1222 2565 -1.194E3
1263 2565 -1.194E3
806 2566 1
810 2566 1
1223 2566 -1.194E3
1264 2566 -1.194E3
806 2567 1
807 2567 1
1224 2567 -1.194E3
1265 2567 -1.194E3
806 2568 1
811 2568 1
1225 2568 -1.194E3
1266 2568 -1.194E3
807 2569 1
808 2569 -1
1214 2569 -1.194E3
1255 2569 -1.194E3
807 2570 1
809 2570 -1
1215 2570 -1.194E3
1256 2570 -1.194E3
807 2571 1
810 2571 -1
1216 2571 -1.194E3
1257 2571 -1.194E3
807 2572 1
811 2572 -1
1220 2572 -1.194E3
1261 2572 -1.194E3
807 2573 1
812 2573 -1
1229 2573 -1.194E3
1270 2573 -1.194E3
807 2574 1
814 2574 -1
1238 2574 -1.194E3
1279 2574 -1.194E3
807 2575 1
815 2575 -1
1246 2575 -1.194E3
1287 2575 -1.194E3
808 2576 1
809 2576 -1
1211 2576 -1.194E3
1252 2576 -1.194E3
808 2577 1
810 2577 -1
1212 2577 -1.194E3
1253 2577 -1.194E3
808 2578 1
811 2578 -1
1217 2578 -1.194E3
1258 2578 -1.194E3
808 2579 1
812 2579 -1
1226 2579 -1.194E3
1267 2579 -1.194E3
808 2580 1
813 2580 -1
1232 2580 -1.194E3
1273 2580 -1.194E3
808 2581 1
814 2581 -1
1236 2581 -1.194E3
1277 2581 -1.194E3
808 2582 1
815 2582 -1
1243 2582 -1.194E3
1284 2582 -1.194E3
808 2583 -1
809 2583 1
1211 2583 -1.194E3
1252 2583 -1.194E3
808 2584 -1
810 2584 1
1212 2584 -1.194E3
1253 2584 -1.194E3
808 2585 -1
811 2585 1
1217 2585 -1.194E3
1258 2585 -1.194E3
808 2586 -1
812 2586 1
1226 2586 -1.194E3
1267 2586 -1.194E3
808 2587 -1
813 2587 1
1232 2587 -1.194E3
1273 2587 -1.194E3
808 2588 -1
814 2588 1
1236 2588 -1.194E3
1277 2588 -1.194E3
808 2589 -1
815 2589 1
1243 2589 -1.194E3
1284 2589 -1.194E3
809 2590 1
810 2590 -1
1213 2590 -1.194E3
1254 2590 -1.194E3
809 2591 1
811 2591 -1
1218 2591 -1.194E3
1259 2591 -1.194E3
809 2592 1
812 2592 -1
1227 2592 -1.194E3
1268 2592 -1.194E3
809 2593 1
815 2593 -1
1244 2593 -1.194E3
1285 2593 -1.194E3
809 2594 -1
810 2594 1
1213 2594 -1.194E3
1254 2594 -1.194E3
809 2595 -1
811 2595 1
1218 2595 -1.194E3
1259 2595 -1.194E3
809 2596 -1
812 2596 1
1227 2596 -1.194E3
1268 2596 -1.194E3
809 2597 -1
815 2597 1
1244 2597 -1.194E3
1285 2597 -1.194E3
810 2598 1
811 2598 -1
1219 2598 -1.194E3
1260 2598 -1.194E3
810 2599 1
812 2599 -1
1228 2599 -1.194E3
1269 2599 -1.194E3
810 2600 1
814 2600 -1
1237 2600 -1.194E3
1278 2600 -1.194E3
810 2601 1
815 2601 -1
1245 2601 -1.194E3
1286 2601 -1.194E3
810 2602 -1
811 2602 1
1219 2602 -1.194E3
1260 2602 -1.194E3
810 2603 -1
812 2603 1
1228 2603 -1.194E3
1269 2603 -1.194E3
810 2604 -1
814 2604 1
1237 2604 -1.194E3
1278 2604 -1.194E3
810 2605 -1
815 2605 1
1245 2605 -1.194E3
1286 2605 -1.194E3
811 2606 1
812 2606 -1
1230 2606 -1.194E3
1271 2606 -1.194E3
811 2607 1
813 2607 -1
1233 2607 -1.194E3
1274 2607 -1.194E3
811 2608 1
814 2608 -1
1239 2608 -1.194E3
1280 2608 -1.194E3
811 2609 1
815 2609 -1
1247 2609 -1.194E3
1288 2609 -1.194E3
811 2610 -1
812 2610 1
1230 2610 -1.194E3
1271 2610 -1.194E3
811 2611 -1
813 2611 1
1233 2611 -1.194E3
1274 2611 -1.194E3
811 2612 -1
814 2612 1
1239 2612 -1.194E3
1280 2612 -1.194E3
811 2613 -1
815 2613 1
1247 2613 -1.194E3
1288 2613 -1.194E3
812 2614 1
813 2614 -1
1235 2614 -1.194E3
1276 2614 -1.194E3
812 2615 1
814 2615 -1
1241 2615 -1.194E3
1282 2615 -1.194E3
812 2616 1
815 2616 -1
1249 2616 -1.194E3
1290 2616 -1.194E3
812 2617 -1
813 2617 1
1235 2617 -1.194E3
1276 2617 -1.194E3
812 2618 -1
814 2618 1
1241 2618 -1.194E3
1282 2618 -1.194E3
812 2619 -1
815 2619 1
1249 2619 -1.194E3
1290 2619 -1.194E3
813 2620 1
814 2620 -1
1242 2620 -1.194E3
1283 2620 -1.194E3
813 2621 1
815 2621 -1
1250 2621 -1.194E3
1291 2621 -1.194E3
813 2622 -1
814 2622 1
1242 2622 -1.194E3
1283 2622 -1.194E3
813 2623 -1
815 2623 1
1250 2623 -1.194E3
1291 2623 -1.194E3
814 2624 1
815 2624 -1
1251 2624 -1.194E3
1292 2624 -1.194E3
814 2625 -1
815 2625 1
1251 2625 -1.194E3
1292 2625 -1.194E3
816 2626 1
1212 2626 -3.553E3
1253 2626 -3.553E3
817 2627 1
1213 2627 -3.553E3
1254 2627 -3.553E3
818 2628 1
1251 2628 -3.553E3
1292 2628 -3.553E3
819 2629 1
1216 2629 -3.553E3
1257 2629 -3.553E3
820 2630 1
1219 2630 -3.553E3
1260 2630 -3.553E3
821 2631 1
1223 2631 -3.553E3
1264 2631 -3.553E3
822 2632 1
1228 2632 -3.553E3
1269 2632 -3.553E3
823 2633 1
1236 2633 -3.553E3
1277 2633 -3.553E3
824 2634 1
1237 2634 -3.553E3
1278 2634 -3.553E3
825 2635 1
1238 2635 -3.553E3
1279 2635 -3.553E3
826 2636 1
1239 2636 -3.553E3
1280 2636 -3.553E3
827 2637 1
1240 2637 -3.553E3
1281 2637 -3.553E3
828 2638 1
1241 2638 -3.553E3
1282 2638 -3.553E3
829 2639 1
1242 2639 -3.553E3
1283 2639 -3.553E3
830 2640 1
1245 2640 -3.553E3
1286 2640 -3.553E3
831 2641 1
835 2641 1
1216 2641 -3.553E3
1257 2641 -3.553E3
831 2642 1
836 2642 1
1219 2642 -3.553E3
1260 2642 -3.553E3
831 2643 1
837 2643 1
1223 2643 -3.553E3
1264 2643 -3.553E3
831 2644 1
838 2644 1
1228 2644 -3.553E3
1269 2644 -3.553E3
831 2645 1
832 2645 1
1237 2645 -3.553E3
1278 2645 -3.553E3
831 2646 1
840 2646 1
1245 2646 -3.553E3
1286 2646 -3.553E3
831 2647 1
833 2647 1
1212 2647 -3.553E3
1253 2647 -3.553E3
831 2648 1
834 2648 1
1213 2648 -3.553E3
1254 2648 -3.553E3
832 2649 1
833 2649 -1
1236 2649 -3.553E3
1277 2649 -3.553E3
832 2650 1
835 2650 -1
1238 2650 -3.553E3
1279 2650 -3.553E3
832 2651 1
836 2651 -1
1239 2651 -3.553E3
1280 2651 -3.553E3
832 2652 1
837 2652 -1
1240 2652 -3.553E3
1281 2652 -3.553E3
832 2653 1
838 2653 -1
1241 2653 -3.553E3
1282 2653 -3.553E3
832 2654 1
839 2654 -1
1242 2654 -3.553E3
1283 2654 -3.553E3
832 2655 1
840 2655 -1
1251 2655 -3.553E3
1292 2655 -3.553E3
833 2656 1
834 2656 -1
1211 2656 -3.553E3
1252 2656 -3.553E3
833 2657 1
835 2657 -1
1214 2657 -3.553E3
1255 2657 -3.553E3
833 2658 1
836 2658 -1
1217 2658 -3.553E3
1258 2658 -3.553E3
833 2659 1
837 2659 -1
1221 2659 -3.553E3
1262 2659 -3.553E3
833 2660 1
838 2660 -1
1226 2660 -3.553E3
1267 2660 -3.553E3
833 2661 1
839 2661 -1
1232 2661 -3.553E3
1273 2661 -3.553E3
833 2662 1
840 2662 -1
1243 2662 -3.553E3
1284 2662 -3.553E3
833 2663 -1
834 2663 1
1211 2663 -3.553E3
1252 2663 -3.553E3
833 2664 -1
835 2664 1
1214 2664 -3.553E3
1255 2664 -3.553E3
833 2665 -1
836 2665 1
1217 2665 -3.553E3
1258 2665 -3.553E3
833 2666 -1
837 2666 1
1221 2666 -3.553E3
1262 2666 -3.553E3
833 2667 -1
838 2667 1
1226 2667 -3.553E3
1267 2667 -3.553E3
833 2668 -1
839 2668 1
1232 2668 -3.553E3
1273 2668 -3.553E3
833 2669 -1
840 2669 1
1243 2669 -3.553E3
1284 2669 -3.553E3
834 2670 1
835 2670 -1
1215 2670 -3.553E3
1256 2670 -3.553E3
834 2671 1
836 2671 -1
1218 2671 -3.553E3
1259 2671 -3.553E3
834 2672 1
837 2672 -1
1222 2672 -3.553E3
1263 2672 -3.553E3
834 2673 1
838 2673 -1
1227 2673 -3.553E3
1268 2673 -3.553E3
834 2674 1
840 2674 -1
1244 2674 -3.553E3
1285 2674 -3.553E3
834 2675 -1
835 2675 1
1215 2675 -3.553E3
1256 2675 -3.553E3
834 2676 -1
836 2676 1
1218 2676 -3.553E3
1259 2676 -3.553E3
834 2677 -1
837 2677 1
1222 2677 -3.553E3
1263 2677 -3.553E3
834 2678 -1
838 2678 1
1227 2678 -3.553E3
1268 2678 -3.553E3
834 2679 -1
840 2679 1
1244 2679 -3.553E3
1285 2679 -3.553E3
835 2680 1
836 2680 -1
1220 2680 -3.553E3
1261 2680 -3.553E3
835 2681 1
837 2681 -1
1224 2681 -3.553E3
1265 2681 -3.553E3
835 2682 1
838 2682 -1
1229 2682 -3.553E3
1270 2682 -3.553E3
835 2683 1
840 2683 -1
1246 2683 -3.553E3
1287 2683 -3.553E3
835 2684 -1
836 2684 1
1220 2684 -3.553E3
1261 2684 -3.553E3
835 2685 -1
837 2685 1
1224 2685 -3.553E3
1265 2685 -3.553E3
835 2686 -1
838 2686 1
1229 2686 -3.553E3
1270 2686 -3.553E3
835 2687 -1
840 2687 1
1246 2687 -3.553E3
1287 2687 -3.553E3
836 2688 1
837 2688 -1
1225 2688 -3.553E3
1266 2688 -3.553E3
836 2689 1
838 2689 -1
1230 2689 -3.553E3
1271 2689 -3.553E3
836 2690 1
839 2690 -1
1233 2690 -3.553E3
1274 2690 -3.553E3
836 2691 1
840 2691 -1
1247 2691 -3.553E3
1288 2691 -3.553E3
836 2692 -1
837 2692 1
1225 2692 -3.553E3
1266 2692 -3.553E3
836 2693 -1
838 2693 1
1230 2693 -3.553E3
1271 2693 -3.553E3
836 2694 -1
839 2694 1
1233 2694 -3.553E3
1274 2694 -3.553E3
836 2695 -1
840 2695 1
1247 2695 -3.553E3
1288 2695 -3.553E3
837 2696 1
838 2696 -1
1231 2696 -3.553E3
1272 2696 -3.553E3
837 2697 1
839 2697 -1
1234 2697 -3.553E3
1275 2697 -3.553E3
837 2698 1
840 2698 -1
1248 2698 -3.553E3
1289 2698 -3.553E3
837 2699 -1
838 2699 1
1231 2699 -3.553E3
1272 2699 -3.553E3
837 2700 -1
839 2700 1
1234 2700 -3.553E3
1275 2700 -3.553E3
837 2701 -1
840 2701 1
1248 2701 -3.553E3
1289 2701 -3.553E3
838 2702 1
839 2702 -1
1235 2702 -3.553E3
1276 2702 -3.553E3
838 2703 1
840 2703 -1
1249 2703 -3.553E3
1290 2703 -3.553E3
838 2704 -1
839 2704 1
1235 2704 -3.553E3
1276 2704 -3.553E3
838 2705 -1
840 2705 1
1249 2705 -3.553E3
1290 2705 -3.553E3
839 2706 1
840 2706 -1
1250 2706 -3.553E3
1291 2706 -3.553E3
839 2707 -1
840 2707 1
1250 2707 -3.553E3
1291 2707 -3.553E3
841 2708 1
847 2708 -2.048E3
848 2708 -2.048E3
849 2708 -2.09E2
841 2709 -1
842 2709 1
847 2709 -2.048E3
848 2709 -2.048E3
849 2709 -2.09E2
842 2710 -1
843 2710 1
847 2710 -2.048E3
848 2710 -2.048E3
849 2710 -2.09E2
843 2711 -1
844 2711 1
847 2711 -2.7856E4
848 2711 -2.7856E4
849 2711 -1.289E3
844 2712 -1
845 2712 1
847 2712 -3.4E4
848 2712 -3.4E4
849 2712 -1.916E3
845 2713 -1
847 2713 -3.4E4
848 2713 -3.4E4
849 2713 -1.916E3
846 2714 1
847 2715 1
1211 2715 1
848 2716 1
1252 2716 1
849 2717 1
1210 2717 -1
850 2718 1
856 2718 -2.048E3
857 2718 -2.048E3
858 2718 -4.7E1
850 2719 -1
851 2719 1
856 2719 -2.048E3
857 2719 -2.048E3
858 2719 -4.7E1
851 2720 -1
852 2720 1
856 2720 -2.048E3
857 2720 -2.048E3
858 2720 -4.7E1
852 2721 -1
853 2721 1
856 2721 -2.7856E4
857 2721 -2.7856E4
858 2721 -2.67E2
853 2722 -1
854 2722 1
856 2722 -3.4E4
857 2722 -3.4E4
858 2722 -4.08E2
854 2723 -1
856 2723 -3.4E4
857 2723 -3.4E4
858 2723 -4.08E2
855 2724 1
856 2725 1
1212 2725 1
857 2726 1
1253 2726 1
858 2727 1
1210 2727 -1
859 2728 1
865 2728 -2.048E3
866 2728 -2.048E3
867 2728 -2.12E2
859 2729 -1
860 2729 1
865 2729 -2.048E3
866 2729 -2.048E3
867 2729 -2.12E2
860 2730 -1
861 2730 1
865 2730 -2.048E3
866 2730 -2.048E3
867 2730 -2.12E2
861 2731 -1
862 2731 1
865 2731 -2.7856E4
866 2731 -2.7856E4
867 2731 -1.304E3
862 2732 -1
863 2732 1
865 2732 -3.4E4
866 2732 -3.4E4
867 2732 -1.94E3
863 2733 -1
865 2733 -3.4E4
866 2733 -3.4E4
867 2733 -1.94E3
864 2734 1
865 2735 1
1213 2735 1
866 2736 1
1254 2736 1
867 2737 1
1210 2737 -1
868 2738 1
874 2738 -2.048E3
875 2738 -2.048E3
876 2738 -1.47E2
868 2739 -1
869 2739 1
874 2739 -2.048E3
875 2739 -2.048E3
876 2739 -1.47E2
869 2740 -1
870 2740 1
874 2740 -2.048E3
875 2740 -2.048E3
876 2740 -1.47E2
870 2741 -1
871 2741 1
874 2741 -2.7856E4
875 2741 -2.7856E4
876 2741 -8.99E2
871 2742 -1
872 2742 1
874 2742 -3.4E4
875 2742 -3.4E4
876 2742 -1.34E3
872 2743 -1
874 2743 -3.4E4
875 2743 -3.4E4
876 2743 -1.34E3
873 2744 1
874 2745 1
1214 2745 1
875 2746 1
1255 2746 1
876 2747 1
1210 2747 -1
877 2748 1
883 2748 -2.048E3
884 2748 -2.048E3
885 2748 -2.38E2
877 2749 -1
878 2749 1
883 2749 -2.048E3
884 2749 -2.048E3
885 2749 -2.38E2
878 2750 -1
879 2750 1
883 2750 -2.048E3
884 2750 -2.048E3
885 2750 -2.38E2
879 2751 -1
880 2751 1
883 2751 -2.7856E4
884 2751 -2.7856E4
885 2751 -1.467E3
880 2752 -1
881 2752 1
883 2752 -3.4E4
884 2752 -3.4E4
885 2752 -2.181E3
881 2753 -1
883 2753 -3.4E4
884 2753 -3.4E4
885 2753 -2.181E3
882 2754 1
883 2755 1
1215 2755 1
884 2756 1
1256 2756 1
885 2757 1
1210 2757 -1
886 2758 1
892 2758 -2.048E3
893 2758 -2.048E3
894 2758 -1.49E2
886 2759 -1
887 2759 1
892 2759 -2.048E3
893 2759 -2.048E3
894 2759 -1.49E2
887 2760 -1
888 2760 1
892 2760 -2.048E3
893 2760 -2.048E3
894 2760 -1.49E2
888 2761 -1
889 2761 1
892 2761 -2.7856E4
893 2761 -2.7856E4
894 2761 -9.12E2
889 2762 -1
890 2762 1
892 2762 -3.4E4
893 2762 -3.4E4
894 2762 -1.359E3
890 2763 -1
892 2763 -3.4E4
893 2763 -3.4E4
894 2763 -1.359E3
891 2764 1
892 2765 1
1216 2765 1
893 2766 1
1257 2766 1
894 2767 1
1210 2767 -1
895 2768 1
901 2768 -2.048E3
902 2768 -2.048E3
903 2768 -3.24E2
895 2769 -1
896 2769 1
901 2769 -2.048E3
902 2769 -2.048E3
903 2769 -3.24E2
896 2770 -1
897 2770 1
901 2770 -2.048E3
902 2770 -2.048E3
903 2770 -3.24E2
897 2771 -1
898 2771 1
901 2771 -2.7856E4
902 2771 -2.7856E4
903 2771 -2.036E3
898 2772 -1
899 2772 1
901 2772 -3.4E4
902 2772 -3.4E4
903 2772 -3.008E3
899 2773 -1
901 2773 -3.4E4
902 2773 -3.4E4
903 2773 -3.008E3
900 2774 1
901 2775 1
1217 2775 1
902 2776 1
1258 2776 1
903 2777 1
1210 2777 -1
904 2778 1
910 2778 -2.048E3
911 2778 -2.048E3
912 2778 -3.81E2
904 2779 -1
905 2779 1
910 2779 -2.048E3
911 2779 -2.048E3
912 2779 -3.81E2
905 2780 -1
906 2780 1
910 2780 -2.048E3
911 2780 -2.048E3
912 2780 -3.81E2
906 2781 -1
907 2781 1
910 2781 -2.7856E4
911 2781 -2.7856E4
912 2781 -2.428E3
907 2782 -1
908 2782 1
910 2782 -3.4E4
911 2782 -3.4E4
912 2782 -3.571E3
908 2783 -1
910 2783 -3.4E4
911 2783 -3.4E4
912 2783 -3.571E3
909 2784 1
910 2785 1
1218 2785 1
911 2786 1
1259 2786 1
912 2787 1
1210 2787 -1
913 2788 1
919 2788 -2.048E3
920 2788 -2.048E3
921 2788 -3.22E2
913 2789 -1
914 2789 1
919 2789 -2.048E3
920 2789 -2.048E3
921 2789 -3.22E2
914 2790 -1
915 2790 1
919 2790 -2.048E3
920 2790 -2.048E3
921 2790 -3.22E2
915 2791 -1
916 2791 1
919 2791 -2.7856E4
920 2791 -2.7856E4
921 2791 -2.024E3
916 2792 -1
917 2792 1
919 2792 -3.4E4
920 2792 -3.4E4
921 2792 -2.99E3
917 2793 -1
919 2793 -3.4E4
920 2793 -3.4E4
921 2793 -2.99E3
918 2794 1
919 2795 1
1219 2795 1
920 2796 1
1260 2796 1
921 2797 1
1210 2797 -1
922 2798 1
928 2798 -2.048E3
929 2798 -2.048E3
930 2798 -2.32E2
922 2799 -1
923 2799 1
928 2799 -2.048E3
929 2799 -2.048E3
930 2799 -2.32E2
923 2800 -1
924 2800 1
928 2800 -2.048E3
929 2800 -2.048E3
930 2800 -2.32E2
924 2801 -1
925 2801 1
928 2801 -2.7856E4
929 2801 -2.7856E4
930 2801 -1.431E3
925 2802 -1
926 2802 1
928 2802 -3.4E4
929 2802 -3.4E4
930 2802 -2.127E3
926 2803 -1
928 2803 -3.4E4
929 2803 -3.4E4
930 2803 -2.127E3
927 2804 1
928 2805 1
1220 2805 1
929 2806 1
1261 2806 1
930 2807 1
1210 2807 -1
931 2808 1
937 2808 -2.048E3
938 2808 -2.048E3
939 2808 -2.78E2
931 2809 -1
932 2809 1
937 2809 -2.048E3
938 2809 -2.048E3
939 2809 -2.78E2
932 2810 -1
933 2810 1
937 2810 -2.048E3
938 2810 -2.048E3
939 2810 -2.78E2
933 2811 -1
934 2811 1
937 2811 -2.7856E4
938 2811 -2.7856E4
939 2811 -1.727E3
934 2812 -1
935 2812 1
937 2812 -3.4E4
938 2812 -3.4E4
939 2812 -2.561E3
935 2813 -1
937 2813 -3.4E4
938 2813 -3.4E4
939 2813 -2.561E3
936 2814 1
937 2815 1
1221 2815 1
938 2816 1
1262 2816 1
939 2817 1
1210 2817 -1
940 2818 1
946 2818 -2.048E3
947 2818 -2.048E3
948 2818 -3.16E2
940 2819 -1
941 2819 1
946 2819 -2.048E3
947 2819 -2.048E3
948 2819 -3.16E2
941 2820 -1
942 2820 1
946 2820 -2.048E3
947 2820 -2.048E3
948 2820 -3.16E2
942 2821 -1
943 2821 1
946 2821 -2.7856E4
947 2821 -2.7856E4
948 2821 -1.981E3
943 2822 -1
944 2822 1
946 2822 -3.4E4
947 2822 -3.4E4
948 2822 -2.929E3
944 2823 -1
946 2823 -3.4E4
947 2823 -3.4E4
948 2823 -2.929E3
945 2824 1
946 2825 1
1222 2825 1
947 2826 1
1263 2826 1
948 2827 1
1210 2827 -1
949 2828 1
955 2828 -2.048E3
956 2828 -2.048E3
957 2828 -2.77E2
949 2829 -1
950 2829 1
955 2829 -2.048E3
956 2829 -2.048E3
957 2829 -2.77E2
950 2830 -1
951 2830 1
955 2830 -2.048E3
956 2830 -2.048E3
957 2830 -2.77E2
951 2831 -1
952 2831 1
955 2831 -2.7856E4
956 2831 -2.7856E4
957 2831 -1.715E3
952 2832 -1
953 2832 1
955 2832 -3.4E4
956 2832 -3.4E4
957 2832 -2.546E3
953 2833 -1
955 2833 -3.4E4
956 2833 -3.4E4
957 2833 -2.546E3
954 2834 1
955 2835 1
1223 2835 1
956 2836 1
1264 2836 1
957 2837 1
1210 2837 -1
958 2838 1
964 2838 -2.048E3
965 2838 -2.048E3
966 2838 -2.26E2
958 2839 -1
959 2839 1
964 2839 -2.048E3
965 2839 -2.048E3
966 2839 -2.26E2
959 2840 -1
960 2840 1
964 2840 -2.048E3
965 2840 -2.048E3
966 2840 -2.26E2
960 2841 -1
961 2841 1
964 2841 -2.7856E4
965 2841 -2.7856E4
966 2841 -1.396E3
961 2842 -1
962 2842 1
964 2842 -3.4E4
965 2842 -3.4E4
966 2842 -2.074E3
962 2843 -1
964 2843 -3.4E4
965 2843 -3.4E4
966 2843 -2.074E3
963 2844 1
964 2845 1
1224 2845 1
965 2846 1
1265 2846 1
966 2847 1
1210 2847 -1
967 2848 1
973 2848 -2.048E3
974 2848 -2.048E3
975 2848 -1.73E2
967 2849 -1
968 2849 1
973 2849 -2.048E3
974 2849 -2.048E3
975 2849 -1.73E2
968 2850 -1
969 2850 1
973 2850 -2.048E3
974 2850 -2.048E3
975 2850 -1.73E2
969 2851 -1
970 2851 1
973 2851 -2.7856E4
974 2851 -2.7856E4
975 2851 -1.062E3
970 2852 -1
971 2852 1
973 2852 -3.4E4
974 2852 -3.4E4
975 2852 -1.581E3
971 2853 -1
973 2853 -3.4E4
974 2853 -3.4E4
975 2853 -1.581E3
972 2854 1
973 2855 1
1225 2855 1
974 2856 1
1266 2856 1
975 2857 1
1210 2857 -1
976 2858 1
982 2858 -2.048E3
983 2858 -2.048E3
984 2858 -1.73E2
976 2859 -1
977 2859 1
982 2859 -2.048E3
983 2859 -2.048E3
984 2859 -1.73E2
977 2860 -1
978 2860 1
982 2860 -2.048E3
983 2860 -2.048E3
984 2860 -1.73E2
978 2861 -1
979 2861 1
982 2861 -2.7856E4
983 2861 -2.7856E4
984 2861 -1.058E3
979 2862 -1
980 2862 1
982 2862 -3.4E4
983 2862 -3.4E4
984 2862 -1.577E3
980 2863 -1
982 2863 -3.4E4
983 2863 -3.4E4
984 2863 -1.577E3
981 2864 1
982 2865 1
1226 2865 1
983 2866 1
1267 2866 1
984 2867 1
1210 2867 -1
985 2868 1
991 2868 -2.048E3
992 2868 -2.048E3
993 2868 -3E2
985 2869 -1
986 2869 1
991 2869 -2.048E3
992 2869 -2.048E3
993 2869 -3E2
986 2870 -1
987 2870 1
991 2870 -2.048E3
992 2870 -2.048E3
993 2870 -3E2
987 2871 -1
988 2871 1
991 2871 -2.7856E4
992 2871 -2.7856E4
993 2871 -1.873E3
988 2872 -1
989 2872 1
991 2872 -3.4E4
992 2872 -3.4E4
993 2872 -2.773E3
989 2873 -1
991 2873 -3.4E4
992 2873 -3.4E4
993 2873 -2.773E3
990 2874 1
991 2875 1
1227 2875 1
992 2876 1
1268 2876 1
993 2877 1
1210 2877 -1
994 2878 1
1000 2878 -2.048E3
1001 2878 -2.048E3
1002 2878 -1.68E2
994 2879 -1
995 2879 1
1000 2879 -2.048E3
1001 2879 -2.048E3
1002 2879 -1.68E2
995 2880 -1
996 2880 1
1000 2880 -2.048E3
1001 2880 -2.048E3
1002 2880 -1.68E2
996 2881 -1
997 2881 1
1000 2881 -2.7856E4
1001 2881 -2.7856E4
1002 2881 -1.025E3
997 2882 -1
998 2882 1
1000 2882 -3.4E4
1001 2882 -3.4E4
1002 2882 -1.529E3
998 2883 -1
1000 2883 -3.4E4
1001 2883 -3.4E4
1002 2883 -1.529E3
999 2884 1
1000 2885 1
1228 2885 1
1001 2886 1
1269 2886 1
1002 2887 1
1210 2887 -1
1003 2888 1
1009 2888 -2.048E3
1010 2888 -2.048E3
1011 2888 -2.59E2
1003 2889 -1
1004 2889 1
1009 2889 -2.048E3
1010 2889 -2.048E3
1011 2889 -2.59E2
1004 2890 -1
1005 2890 1
1009 2890 -2.048E3
1010 2890 -2.048E3
1011 2890 -2.59E2
1005 2891 -1
1006 2891 1
1009 2891 -2.7856E4
1010 2891 -2.7856E4
1011 2891 -1.606E3
1006 2892 -1
1007 2892 1
1009 2892 -3.4E4
1010 2892 -3.4E4
1011 2892 -2.383E3
1007 2893 -1
1009 2893 -3.4E4
1010 2893 -3.4E4
1011 2893 -2.383E3
1008 2894 1
1009 2895 1
1229 2895 1
1010 2896 1
1270 2896 1
1011 2897 1
1210 2897 -1
1012 2898 1
1018 2898 -2.048E3
1019 2898 -2.048E3
1020 2898 -3.24E2
1012 2899 -1
1013 2899 1
1018 2899 -2.048E3
1019 2899 -2.048E3
1020 2899 -3.24E2
1013 2900 -1
1014 2900 1
1018 2900 -2.048E3
1019 2900 -2.048E3
1020 2900 -3.24E2
1014 2901 -1
1015 2901 1
1018 2901 -2.7856E4
1019 2901 -2.7856E4
1020 2901 -2.042E3
1015 2902 -1
1016 2902 1
1018 2902 -3.4E4
1019 2902 -3.4E4
1020 2902 -3.014E3
1016 2903 -1
1018 2903 -3.4E4
1019 2903 -3.4E4
1020 2903 -3.014E3
1017 2904 1
1018 2905 1
1230 2905 1
1019 2906 1
1271 2906 1
1020 2907 1
1210 2907 -1
1021 2908 1
1027 2908 -2.048E3
1028 2908 -2.048E3
1029 2908 -2.84E2
1021 2909 -1
1022 2909 1
1027 2909 -2.048E3
1028 2909 -2.048E3
1029 2909 -2.84E2
1022 2910 -1
1023 2910 1
1027 2910 -2.048E3
1028 2910 -2.048E3
1029 2910 -2.84E2
1023 2911 -1
1024 2911 1
1027 2911 -2.7856E4
1028 2911 -2.7856E4
1029 2911 -1.766E3
1024 2912 -1
1025 2912 1
1027 2912 -3.4E4
1028 2912 -3.4E4
1029 2912 -2.618E3
1025 2913 -1
1027 2913 -3.4E4
1028 2913 -3.4E4
1029 2913 -2.618E3
1026 2914 1
1027 2915 1
1231 2915 1
1028 2916 1
1272 2916 1
1029 2917 1
1210 2917 -1
1030 2918 1
1036 2918 -2.048E3
1037 2918 -2.048E3
1038 2918 -4.2E1
1030 2919 -1
1031 2919 1
1036 2919 -2.048E3
1037 2919 -2.048E3
1038 2919 -4.2E1
1031 2920 -1
1032 2920 1
1036 2920 -2.048E3
1037 2920 -2.048E3
1038 2920 -4.2E1
1032 2921 -1
1033 2921 1
1036 2921 -2.7856E4
1037 2921 -2.7856E4
1038 2921 -1.98E2
1033 2922 -1
1034 2922 1
1036 2922 -3.4E4
1037 2922 -3.4E4
1038 2922 -3.24E2
1034 2923 -1
1036 2923 -3.4E4
1037 2923 -3.4E4
1038 2923 -3.24E2
1035 2924 1
1036 2925 1
1232 2925 1
1037 2926 1
1273 2926 1
1038 2927 1
1210 2927 -1
1039 2928 1
1045 2928 -2.048E3
1046 2928 -2.048E3
1047 2928 -3.23E2
1039 2929 -1
1040 2929 1
1045 2929 -2.048E3
1046 2929 -2.048E3
1047 2929 -3.23E2
1040 2930 -1
1041 2930 1
1045 2930 -2.048E3
1046 2930 -2.048E3
1047 2930 -3.23E2
1041 2931 -1
1042 2931 1
1045 2931 -2.7856E4
1046 2931 -2.7856E4
1047 2931 -2.03E3
1042 2932 -1
1043 2932 1
1045 2932 -3.4E4
1046 2932 -3.4E4
1047 2932 -2.999E3
1043 2933 -1
1045 2933 -3.4E4
1046 2933 -3.4E4
1047 2933 -2.999E3
1044 2934 1
1045 2935 1
1233 2935 1
1046 2936 1
1274 2936 1
1047 2937 1
1210 2937 -1
1048 2938 1
1054 2938 -2.048E3
1055 2938 -2.048E3
1056 2938 -2.77E2
1048 2939 -1
1049 2939 1
1054 2939 -2.048E3
1055 2939 -2.048E3
1056 2939 -2.77E2
1049 2940 -1
1050 2940 1
1054 2940 -2.048E3
1055 2940 -2.048E3
1056 2940 -2.77E2
1050 2941 -1
1051 2941 1
1054 2941 -2.7856E4
1055 2941 -2.7856E4
1056 2941 -1.722E3
1051 2942 -1
1052 2942 1
1054 2942 -3.4E4
1055 2942 -3.4E4
1056 2942 -2.553E3
1052 2943 -1
1054 2943 -3.4E4
1055 2943 -3.4E4
1056 2943 -2.553E3
1053 2944 1
1054 2945 1
1234 2945 1
1055 2946 1
1275 2946 1
1056 2947 1
1210 2947 -1
1057 2948 1
1063 2948 -2.048E3
1064 2948 -2.048E3
1065 2948 -1.72E2
1057 2949 -1
1058 2949 1
1063 2949 -2.048E3
1064 2949 -2.048E3
1065 2949 -1.72E2
1058 2950 -1
1059 2950 1
1063 2950 -2.048E3
1064 2950 -2.048E3
1065 2950 -1.72E2
1059 2951 -1
1060 2951 1
1063 2951 -2.7856E4
1064 2951 -2.7856E4
1065 2951 -1.048E3
1060 2952 -1
1061 2952 1
1063 2952 -3.4E4
1064 2952 -3.4E4
1065 2952 -1.564E3
1061 2953 -1
1063 2953 -3.4E4
1064 2953 -3.4E4
1065 2953 -1.564E3
1062 2954 1
1063 2955 1
1235 2955 1
1064 2956 1
1276 2956 1
1065 2957 1
1210 2957 -1
1066 2958 1
1072 2958 -2.048E3
1073 2958 -2.048E3
1074 2958 -2.98E2
1066 2959 -1
1067 2959 1
1072 2959 -2.048E3
1073 2959 -2.048E3
1074 2959 -2.98E2
1067 2960 -1
1068 2960 1
1072 2960 -2.048E3
1073 2960 -2.048E3
1074 2960 -2.98E2
1068 2961 -1
1069 2961 1
1072 2961 -2.7856E4
1073 2961 -2.7856E4
1074 2961 -1.859E3
1069 2962 -1
1070 2962 1
1072 2962 -3.4E4
1073 2962 -3.4E4
1074 2962 -2.753E3
1070 2963 -1
1072 2963 -3.4E4
1073 2963 -3.4E4
1074 2963 -2.753E3
1071 2964 1
1072 2965 1
1236 2965 1
1073 2966 1
1277 2966 1
1074 2967 1
1210 2967 -1
1075 2968 1
1081 2968 -2.048E3
1082 2968 -2.048E3
1083 2968 -3E2
1075 2969 -1
1076 2969 1
1081 2969 -2.048E3
1082 2969 -2.048E3
1083 2969 -3E2
1076 2970 -1
1077 2970 1
1081 2970 -2.048E3
1082 2970 -2.048E3
1083 2970 -3E2
1077 2971 -1
1078 2971 1
1081 2971 -2.7856E4
1082 2971 -2.7856E4
1083 2971 -1.873E3
1078 2972 -1
1079 2972 1
1081 2972 -3.4E4
1082 2972 -3.4E4
1083 2972 -2.773E3
1079 2973 -1
1081 2973 -3.4E4
1082 2973 -3.4E4
1083 2973 -2.773E3
1080 2974 1
1081 2975 1
1237 2975 1
1082 2976 1
1278 2976 1
1083 2977 1
1210 2977 -1
1084 2978 1
1090 2978 -2.048E3
1091 2978 -2.048E3
1092 2978 -3.56E2
1084 2979 -1
1085 2979 1
1090 2979 -2.048E3
1091 2979 -2.048E3
1092 2979 -3.56E2
1085 2980 -1
1086 2980 1
1090 2980 -2.048E3
1091 2980 -2.048E3
1092 2980 -3.56E2
1086 2981 -1
1087 2981 1
1090 2981 -2.7856E4
1091 2981 -2.7856E4
1092 2981 -2.255E3
1087 2982 -1
1088 2982 1
1090 2982 -3.4E4
1091 2982 -3.4E4
1092 2982 -3.323E3
1088 2983 -1
1090 2983 -3.4E4
1091 2983 -3.4E4
1092 2983 -3.323E3
1089 2984 1
1090 2985 1
1238 2985 1
1091 2986 1
1279 2986 1
1092 2987 1
1210 2987 -1
1093 2988 1
1099 2988 -2.048E3
1100 2988 -2.048E3
1101 2988 -2.86E2
1093 2989 -1
1094 2989 1
1099 2989 -2.048E3
1100 2989 -2.048E3
1101 2989 -2.86E2
1094 2990 -1
1095 2990 1
1099 2990 -2.048E3
1100 2990 -2.048E3
1101 2990 -2.86E2
1095 2991 -1
1096 2991 1
1099 2991 -2.7856E4
1100 2991 -2.7856E4
1101 2991 -1.782E3
1096 2992 -1
1097 2992 1
1099 2992 -3.4E4
1100 2992 -3.4E4
1101 2992 -2.64E3
1097 2993 -1
1099 2993 -3.4E4
1100 2993 -3.4E4
1101 2993 -2.64E3
1098 2994 1
1099 2995 1
1239 2995 1
1100 2996 1
1280 2996 1
1101 2997 1
1210 2997 -1
1102 2998 1
1108 2998 -2.048E3
1109 2998 -2.048E3
1110 2998 -2.44E2
1102 2999 -1
1103 2999 1
1108 2999 -2.048E3
1109 2999 -2.048E3
1110 2999 -2.44E2
1103 3000 -1
1104 3000 1
1108 3000 -2.048E3
1109 3000 -2.048E3
1110 3000 -2.44E2
1104 3001 -1
1105 3001 1
1108 3001 -2.7856E4
1109 3001 -2.7856E4
1110 3001 -1.51E3
1105 3002 -1
1106 3002 1
1108 3002 -3.4E4
1109 3002 -3.4E4
1110 3002 -2.242E3
1106 3003 -1
1108 3003 -3.4E4
1109 3003 -3.4E4
1110 3003 -2.242E3
1107 3004 1
1108 3005 1
1240 3005 1
1109 3006 1
1281 3006 1
1110 3007 1
1210 3007 -1
1111 3008 1
1117 3008 -2.048E3
1118 3008 -2.048E3
1119 3008 -3.38E2
1111 3009 -1
1112 3009 1
1117 3009 -2.048E3
1118 3009 -2.048E3
1119 3009 -3.38E2
1112 3010 -1
1113 3010 1
1117 3010 -2.048E3
1118 3010 -2.048E3
1119 3010 -3.38E2
1113 3011 -1
1114 3011 1
1117 3011 -2.7856E4
1118 3011 -2.7856E4
1119 3011 -2.133E3
1114 3012 -1
1115 3012 1
1117 3012 -3.4E4
1118 3012 -3.4E4
1119 3012 -3.147E3
1115 3013 -1
1117 3013 -3.4E4
1118 3013 -3.4E4
1119 3013 -3.147E3
1116 3014 1
1117 3015 1
1241 3015 1
1118 3016 1
1282 3016 1
1119 3017 1
1210 3017 -1
1120 3018 1
1126 3018 -2.048E3
1127 3018 -2.048E3
1128 3018 -2.98E2
1120 3019 -1
1121 3019 1
1126 3019 -2.048E3
1127 3019 -2.048E3
1128 3019 -2.98E2
1121 3020 -1
1122 3020 1
1126 3020 -2.048E3
1127 3020 -2.048E3
1128 3020 -2.98E2
1122 3021 -1
1123 3021 1
1126 3021 -2.7856E4
1127 3021 -2.7856E4
1128 3021 -1.863E3
1123 3022 -1
1124 3022 1
1126 3022 -3.4E4
1127 3022 -3.4E4
1128 3022 -2.757E3
1124 3023 -1
1126 3023 -3.4E4
1127 3023 -3.4E4
1128 3023 -2.757E3
1125 3024 1
1126 3025 1
1242 3025 1
1127 3026 1
1283 3026 1
1128 3027 1
1210 3027 -1
1129 3028 1
1135 3028 -2.048E3
1136 3028 -2.048E3
1137 3028 -4.5E1
1129 3029 -1
1130 3029 1
1135 3029 -2.048E3
1136 3029 -2.048E3
1137 3029 -4.5E1
1130 3030 -1
1131 3030 1
1135 3030 -2.048E3
1136 3030 -2.048E3
1137 3030 -4.5E1
1131 3031 -1
1132 3031 1
1135 3031 -2.7856E4
1136 3031 -2.7856E4
1137 3031 -2.34E2
1132 3032 -1
1133 3032 1
1135 3032 -3.4E4
1136 3032 -3.4E4
1137 3032 -3.69E2
1133 3033 -1
1135 3033 -3.4E4
1136 3033 -3.4E4
1137 3033 -3.69E2
1134 3034 1
1135 3035 1
1243 3035 1
1136 3036 1
1284 3036 1
1137 3037 1
1210 3037 -1
1138 3038 1
1144 3038 -2.048E3
1145 3038 -2.048E3
1146 3038 -2.09E2
1138 3039 -1
1139 3039 1
1144 3039 -2.048E3
1145 3039 -2.048E3
1146 3039 -2.09E2
1139 3040 -1
1140 3040 1
1144 3040 -2.048E3
1145 3040 -2.048E3
1146 3040 -2.09E2
1140 3041 -1
1141 3041 1
1144 3041 -2.7856E4
1145 3041 -2.7856E4
1146 3041 -1.286E3
1141 3042 -1
1142 3042 1
1144 3042 -3.4E4
1145 3042 -3.4E4
1146 3042 -1.913E3
1142 3043 -1
1144 3043 -3.4E4
1145 3043 -3.4E4
1146 3043 -1.913E3
1143 3044 1
1144 3045 1
1244 3045 1
1145 3046 1
1285 3046 1
1146 3047 1
1210 3047 -1
1147 3048 1
1153 3048 -2.048E3
1154 3048 -2.048E3
1155 3048 -4.5E1
1147 3049 -1
1148 3049 1
1153 3049 -2.048E3
1154 3049 -2.048E3
1155 3049 -4.5E1
1148 3050 -1
1149 3050 1
1153 3050 -2.048E3
1154 3050 -2.048E3
1155 3050 -4.5E1
1149 3051 -1
1150 3051 1
1153 3051 -2.7856E4
1154 3051 -2.7856E4
1155 3051 -2.36E2
1150 3052 -1
1151 3052 1
1153 3052 -3.4E4
1154 3052 -3.4E4
1155 3052 -3.71E2
1151 3053 -1
1153 3053 -3.4E4
1154 3053 -3.4E4
1155 3053 -3.71E2
1152 3054 1
1153 3055 1
1245 3055 1
1154 3056 1
1286 3056 1
1155 3057 1
1210 3057 -1
1156 3058 1
1162 3058 -2.048E3
1163 3058 -2.048E3
1164 3058 -1.44E2
1156 3059 -1
1157 3059 1
1162 3059 -2.048E3
1163 3059 -2.048E3
1164 3059 -1.44E2
1157 3060 -1
1158 3060 1
1162 3060 -2.048E3
1163 3060 -2.048E3
1164 3060 -1.44E2
1158 3061 -1
1159 3061 1
1162 3061 -2.7856E4
1163 3061 -2.7856E4
1164 3061 -8.8E2
1159 3062 -1
1160 3062 1
1162 3062 -3.4E4
1163 3062 -3.4E4
1164 3062 -1.312E3
1160 3063 -1
1162 3063 -3.4E4
1163 3063 -3.4E4
1164 3063 -1.312E3
1161 3064 1
1162 3065 1
1246 3065 1
1163 3066 1
1287 3066 1
1164 3067 1
1210 3067 -1
1165 3068 1
1171 3068 -2.048E3
1172 3068 -2.048E3
1173 3068 -3.22E2
1165 3069 -1
1166 3069 1
1171 3069 -2.048E3
1172 3069 -2.048E3
1173 3069 -3.22E2
1166 3070 -1
1167 3070 1
1171 3070 -2.048E3
1172 3070 -2.048E3
1173 3070 -3.22E2
1167 3071 -1
1168 3071 1
1171 3071 -2.7856E4
1172 3071 -2.7856E4
1173 3071 -2.027E3
1168 3072 -1
1169 3072 1
1171 3072 -3.4E4
1172 3072 -3.4E4
1173 3072 -2.993E3
1169 3073 -1
1171 3073 -3.4E4
1172 3073 -3.4E4
1173 3073 -2.993E3
1170 3074 1
1171 3075 1
1247 3075 1
1172 3076 1
1288 3076 1
1173 3077 1
1210 3077 -1
1174 3078 1
1180 3078 -2.048E3
1181 3078 -2.048E3
1182 3078 -2.77E2
1174 3079 -1
1175 3079 1
1180 3079 -2.048E3
1181 3079 -2.048E3
1182 3079 -2.77E2
1175 3080 -1
1176 3080 1
1180 3080 -2.048E3
1181 3080 -2.048E3
1182 3080 -2.77E2
1176 3081 -1
1177 3081 1
1180 3081 -2.7856E4
1181 3081 -2.7856E4
1182 3081 -1.716E3
1177 3082 -1
1178 3082 1
1180 3082 -3.4E4
1181 3082 -3.4E4
1182 3082 -2.547E3
1178 3083 -1
1180 3083 -3.4E4
1181 3083 -3.4E4
1182 3083 -2.547E3
1179 3084 1
1180 3085 1
1248 3085 1
1181 3086 1
1289 3086 1
1182 3087 1
1210 3087 -1
1183 3088 1
1189 3088 -2.048E3
1190 3088 -2.048E3
1191 3088 -1.7E2
1183 3089 -1
1184 3089 1
1189 3089 -2.048E3
1190 3089 -2.048E3
1191 3089 -1.7E2
1184 3090 -1
1185 3090 1
1189 3090 -2.048E3
1190 3090 -2.048E3
1191 3090 -1.7E2
1185 3091 -1
1186 3091 1
1189 3091 -2.7856E4
1190 3091 -2.7856E4
1191 3091 -1.04E3
1186 3092 -1
1187 3092 1
1189 3092 -3.4E4
1190 3092 -3.4E4
1191 3092 -1.55E3
1187 3093 -1
1189 3093 -3.4E4
1190 3093 -3.4E4
1191 3093 -1.55E3
1188 3094 1
1189 3095 1
1249 3095 1
1190 3096 1
1290 3096 1
1191 3097 1
1210 3097 -1
1192 3098 1
1198 3098 -2.048E3
1199 3098 -2.048E3
1200 3098 -3.6E1
1192 3099 -1
1193 3099 1
1198 3099 -2.048E3
1199 3099 -2.048E3
1200 3099 -3.6E1
1193 3100 -1
1194 3100 1
1198 3100 -2.048E3
1199 3100 -2.048E3
1200 3100 -3.6E1
1194 3101 -1
1195 3101 1
1198 3101 -2.7856E4
1199 3101 -2.7856E4
1200 3101 -1.37E2
1195 3102 -1
1196 3102 1
1198 3102 -3.4E4
1199 3102 -3.4E4
1200 3102 -2.45E2
1196 3103 -1
1198 3103 -3.4E4
1199 3103 -3.4E4
1200 3103 -2.45E2
1197 3104 1
1198 3105 1
1250 3105 1
1199 3106 1
1291 3106 1
1200 3107 1
1210 3107 -1
1201 3108 1
1207 3108 -2.048E3
1208 3108 -2.048E3
1209 3108 -2.99E2
1201 3109 -1
1202 3109 1
1207 3109 -2.048E3
1208 3109 -2.048E3
1209 3109 -2.99E2
1202 3110 -1
1203 3110 1
1207 3110 -2.048E3
1208 3110 -2.048E3
1209 3110 -2.99E2
1203 3111 -1
1204 3111 1
1207 3111 -2.7856E4
1208 3111 -2.7856E4
1209 3111 -1.866E3
1204 3112 -1
1205 3112 1
1207 3112 -3.4E4
1208 3112 -3.4E4
1209 3112 -2.763E3
1205 3113 -1
1207 3113 -3.4E4
1208 3113 -3.4E4
1209 3113 -2.763E3
1206 3114 1
1207 3115 1
1251 3115 1
1208 3116 1
1292 3116 1
1209 3117 1
1210 3117 -1
